MEMORY 60 GB

molecule dimer {
1 1
Li         0.000000     0.000000     0.000000
O          2.226908     0.000000     0.000000
H          2.811912     0.763729     0.000000
H          2.811912    -0.763729     0.000000
O         -2.226908     0.000000     0.000000
H         -2.811911    -0.763729     0.000000
H         -2.811911     0.763729     0.000000

units ang
no_reorient
no_com
symmetry c1
}

set {
basis        aug-cc-pVTZ
scf_type     df
}

energy("mp2")
