MEMORY 60 GB

molecule dimer {
0 1
Gh(Li)     0.000000     0.000000     0.000000
O          2.598060     0.000000     0.000000
H          3.183064     0.763729     0.000000
H          3.183064    -0.763729     0.000000
Gh(O)     -2.598060     0.000000     0.000000
Gh(H)     -3.183063    -0.763729     0.000000
Gh(H)     -3.183063     0.763729     0.000000

units ang
no_reorient
no_com
symmetry c1
}

set {
basis        aug-cc-pVTZ
scf_type     df
}

energy("mp2")
