MEMORY 60 GB

molecule dimer {
1 1
Li         0.000000     0.000000     0.000000
Gh(O)      1.855757     0.000000     0.000000
Gh(H)      2.440761     0.763729     0.000000
Gh(H)      2.440761    -0.763729     0.000000
Gh(O)     -1.855757     0.000000     0.000000
Gh(H)     -2.440760    -0.763729     0.000000
Gh(H)     -2.440760     0.763729     0.000000

units ang
no_reorient
no_com
symmetry c1
}

set {
basis        aug-cc-pVTZ
scf_type     df
}

energy("mp2")
