MEMORY 60 GB

molecule dimer {
1 1
Li     0.000000     0.000000     0.000000
--
0 1
O      2.412484     0.000000     0.000000
H      2.997488     0.763729     0.000000
H      2.997488    -0.763729     0.000000
O     -2.412484     0.000000     0.000000
H     -2.997487    -0.763729     0.000000
H     -2.997487     0.763729     0.000000

units ang
no_reorient
no_com
symmetry c1
}

set {
basis        aug-cc-pVTZ
scf_type     df
}

energy("mp2", bsse_type="cp")
