MEMORY 60 GB

molecule dimer {
1 1
Li     0.000000     0.000000     0.000000
--
0 1
O      3.711514     0.000000     0.000000
H      4.296518     0.763729     0.000000
H      4.296518    -0.763729     0.000000
--
0 1
O     -3.711514     0.000000     0.000000
H     -4.296517    -0.763729     0.000000
H     -4.296517     0.763729     0.000000

units ang
no_reorient
no_com
symmetry c1
}

set {
basis        aug-cc-pVTZ
scf_type     df
}

energy("mp2", bsse_type="cp")
