MEMORY 60 GB

molecule dimer {
1 1
Na         0.000000     0.000000     0.000000
Gh(O)      2.458542     0.000000     0.000000
Gh(H)      3.047500     0.759416     0.000000
Gh(H)      3.047500    -0.759416     0.000000
Gh(O)     -2.458542     0.000000     0.000000
Gh(H)     -3.047500    -0.759416     0.000000
Gh(H)     -3.047500     0.759416     0.000000

units ang
no_reorient
no_com
symmetry c1
}

set {
basis        aug-cc-pVTZ
scf_type     df
}

energy("mp2")
