MEMORY 60 GB

molecule dimer {
0 1
Gh(Na)     0.000000     0.000000     0.000000
Gh(O)      2.123286     0.000000     0.000000
Gh(H)      2.712244     0.759416     0.000000
Gh(H)      2.712244    -0.759416     0.000000
O         -2.123286     0.000000     0.000000
H         -2.712244    -0.759416     0.000000
H         -2.712244     0.759416     0.000000

units ang
no_reorient
no_com
symmetry c1
}

set {
basis        aug-cc-pVTZ
scf_type     df
}

energy("mp2")
