MEMORY 60 GB

molecule dimer {
1 1
K          0.000000     0.000000     0.000000
Gh(O)      3.282754     0.000000     0.000000
Gh(H)      3.875924     0.755912     0.000000
Gh(H)      3.875924    -0.755912     0.000000
Gh(O)     -3.282754     0.000000     0.000000
Gh(H)     -3.875924    -0.755912     0.000000
Gh(H)     -3.875924     0.755912     0.000000

units ang
no_reorient
no_com
symmetry c1
}

set {
basis        aug-cc-pVTZ
scf_type     df
}

energy("mp2")
