MEMORY 60 GB

molecule dimer {
1 1
K      0.000000     0.000000     0.000000
--
0 1
O      2.777715     0.000000     0.000000
H      3.370886     0.755912     0.000000
H      3.370886    -0.755912     0.000000
O     -2.777715     0.000000     0.000000
H     -3.370886    -0.755912     0.000000
H     -3.370886     0.755912     0.000000

units ang
no_reorient
no_com
symmetry c1
}

set {
basis        aug-cc-pVTZ
scf_type     df
}

energy("mp2", bsse_type="cp")
