MEMORY 60 GB

molecule dimer {
1 1
K          0.000000     0.000000     0.000000
O          3.535273     0.000000     0.000000
H          4.128444     0.755912     0.000000
H          4.128444    -0.755912     0.000000
O         -3.535273     0.000000     0.000000
H         -4.128444    -0.755912     0.000000
H         -4.128444     0.755912     0.000000

units ang
no_reorient
no_com
symmetry c1
}

set {
basis        aug-cc-pVTZ
scf_type     df
}

energy("mp2")
