MEMORY 60 GB

molecule dimer {
0 1
Gh(K)      0.000000     0.000000     0.000000
O          3.030234     0.000000     0.000000
H          3.623405     0.755912     0.000000
H          3.623405    -0.755912     0.000000
Gh(O)     -3.030234     0.000000     0.000000
Gh(H)     -3.623405    -0.755912     0.000000
Gh(H)     -3.623405     0.755912     0.000000

units ang
no_reorient
no_com
symmetry c1
}

set {
basis        aug-cc-pVTZ
scf_type     df
}

energy("mp2")
