MEMORY 60 GB

molecule dimer {
-1 1
F      1.828163     0.000000     0.000000
--
0 1
O      0.000000    -0.007351     1.810088
H     -0.603559     0.630161     1.426970
H      0.742517    -0.027506     1.118978
--
0 1
O      0.000000     0.007351    -1.810088
H     -0.603559    -0.630161    -1.426970
H      0.742517     0.027506    -1.118978

units ang
no_reorient
no_com
symmetry c1
}

set {
basis        aug-cc-pVTZ
scf_type     df
}

energy("mp2", bsse_type="cp")
