MEMORY 60 GB

molecule dimer {
-1 1
Br         2.691184     0.000000     0.000000
O          0.000000    -0.112811     1.567716
H         -0.349529     0.578740     1.000386
H          0.921124    -0.169041     1.237825
O          0.000000     0.112811    -1.567716
H         -0.349529    -0.578740    -1.000386
H          0.921124     0.169041    -1.237825

units ang
no_reorient
no_com
symmetry c1
}

set {
basis        aug-cc-pVTZ
scf_type     df
}

energy("mp2")
