MEMORY 60 GB

molecule dimer {
1 1
Li     0.000000     0.000000     0.000000
--
0 1
O      1.888392    -0.000000     0.000000
H      2.474378     0.761371     0.000000
H      2.474378    -0.761371     0.000000
O     -0.944196     1.635395     0.000000
H     -1.896556     1.762189     0.000000
H     -0.577823     2.523560     0.000000
O     -0.944196    -1.635395     0.000000
H     -0.577823    -2.523560     0.000000
H     -1.896556    -1.762189     0.000000

units ang
no_reorient
no_com
symmetry c1
}

set {
basis        aug-cc-pVTZ
scf_type     df
}

energy("mp2", bsse_type="cp")
