MEMORY 60 GB

molecule dimer {
0 1
Gh(Li)     0.000000     0.000000     0.000000
Gh(O)      1.662605     0.000000    -0.979518
Gh(H)      2.073385     0.762027    -1.395425
Gh(H)      2.073385    -0.762027    -1.395425
Gh(O)     -1.663924     0.000000    -0.977575
Gh(H)     -2.075145     0.762032    -1.393035
Gh(H)     -2.075145    -0.762032    -1.393035
Gh(O)      0.000286     1.663355     0.978432
Gh(H)     -0.761642     2.074836     1.393818
Gh(H)      0.762446     2.074902     1.393328
O          0.000286    -1.663355     0.978432
H         -0.761642    -2.074835     1.393818
H          0.762446    -2.074902     1.393328

units ang
no_reorient
no_com
symmetry c1
}

set {
basis        aug-cc-pVTZ
scf_type     df
}

energy("mp2")
