MEMORY 60 GB

molecule dimer {
0 1
Gh(Li)     0.000000     0.000000     0.000000
Gh(O)      3.713222     0.016710     0.000648
Gh(H)      4.294887     0.778687     0.091204
Gh(H)      4.305980    -0.736703    -0.089705
Gh(O)     -1.187467     1.513210    -0.085851
Gh(H)     -1.998484     1.683057     0.398519
Gh(H)     -0.961041     2.345623    -0.506960
Gh(O)     -1.172691    -1.525054     0.087012
Gh(H)     -0.937416    -2.355207     0.507751
Gh(H)     -1.981389    -1.703558    -0.398129
O          1.288730    -0.225964     1.412737
H          1.240636    -0.151784     2.367541
H          2.223417    -0.153396     1.174699
Gh(O)      1.287118     0.239899    -1.412105
Gh(H)      1.240058     0.167974    -2.367136
Gh(H)      2.222132     0.172652    -1.173732

units ang
no_reorient
no_com
symmetry c1
}

set {
basis        aug-cc-pVTZ
scf_type     df
}

energy("mp2")
