MEMORY 60 GB

molecule dimer {
0 1
Gh(Li)     0.000000     0.000000     0.000000
O          2.105125     0.004064     0.000073
H          2.692086     0.763743     0.003931
H          2.695323    -0.753099    -0.003791
Gh(O)     -0.005881     2.202644     0.005709
Gh(H)     -0.759055     2.797230     0.004681
Gh(H)      0.749729     2.794134     0.004461
Gh(O)     -2.103286     0.002241    -0.000014
Gh(H)     -2.698007    -0.751365    -0.003850
Gh(H)     -2.685658     0.765424     0.003881
Gh(O)      0.001016    -2.196479    -0.005695
Gh(H)      0.753343    -2.792129    -0.004557
Gh(H)     -0.755808    -2.786400    -0.004582
Gh(O)      0.003099    -0.001488     2.050341
Gh(H)     -0.759215    -0.007697     2.631837
Gh(H)      0.768379    -0.011643     2.627869
Gh(O)      0.003145     0.008130    -2.050319
Gh(H)     -0.759192     0.007978    -2.631818
Gh(H)      0.768403     0.003906    -2.627951

units ang
no_reorient
no_com
symmetry c1
}

set {
basis        aug-cc-pVTZ
scf_type     df
}

energy("mp2")
