MEMORY 60 GB

molecule dimer {
1 1
Na         0.000000     0.000000     0.000000
Gh(O)      2.219984     0.000000     0.000000
Gh(H)      2.808012     0.759335    -0.000000
Gh(H)      2.808012    -0.759335    -0.000000
Gh(O)     -1.109992     1.922562     0.000000
Gh(H)     -2.061610     2.052143     0.000000
Gh(H)     -0.746403     2.811478    -0.000000
Gh(O)     -1.109992    -1.922562     0.000000
Gh(H)     -0.746403    -2.811478     0.000000
Gh(H)     -2.061610    -2.052143    -0.000000

units ang
no_reorient
no_com
symmetry c1
}

set {
basis        aug-cc-pVTZ
scf_type     df
}

energy("mp2")
