MEMORY 60 GB

molecule dimer {
0 1
Gh(Na)     0.000000     0.000000     0.000000
Gh(O)      1.870172    -0.000000    -1.173415
Gh(H)      2.316655     0.760558    -1.552451
Gh(H)      2.316655    -0.760558    -1.552451
Gh(O)     -1.871411    -0.000000    -1.171436
Gh(H)     -2.318235     0.760557    -1.550073
Gh(H)     -2.318235    -0.760557    -1.550073
Gh(O)      0.000572     1.870196     1.173356
Gh(H)     -0.759836     2.316556     1.552839
Gh(H)      0.761280     2.316751     1.552004
O          0.000572    -1.870196     1.173356
H         -0.759836    -2.316556     1.552839
H          0.761280    -2.316751     1.552004

units ang
no_reorient
no_com
symmetry c1
}

set {
basis        aug-cc-pVTZ
scf_type     df
}

energy("mp2")
