MEMORY 60 GB

molecule dimer {
0 1
Gh(Na)     0.000000     0.000000     0.000000
O          2.127279     0.958722    -0.303191
H          1.886144     1.856127    -0.045765
H          3.083807     0.914107    -0.236147
Gh(O)     -0.290523     2.307019     0.013940
Gh(H)     -0.650774     3.093413     0.429897
Gh(H)     -0.441263     2.417497    -0.932218
Gh(O)     -1.241008    -1.890537     0.130238
Gh(H)     -1.265291    -2.158266     1.052897
Gh(H)     -1.758627    -2.547849    -0.339374
Gh(O)      0.035120    -0.485188     2.275872
Gh(H)     -0.468697    -0.019297     2.947733
Gh(H)      0.810529    -0.811250     2.739680
Gh(O)      0.109375     0.709487    -2.223872
Gh(H)     -0.208283     0.571183    -3.118810
Gh(H)      1.061421     0.839555    -2.299444

units ang
no_reorient
no_com
symmetry c1
}

set {
basis        aug-cc-pVTZ
scf_type     df
}

energy("mp2")
