MEMORY 60 GB

molecule dimer {
0 1
Gh(Na)     0.000000     0.000000     0.000000
Gh(O)      2.269193    -0.174708     0.671635
Gh(H)      3.155501     0.191999     0.648503
Gh(H)      2.363042    -1.114159     0.472606
O         -0.566657     2.289813    -0.248404
H         -0.531767     3.180504     0.106617
H         -0.308338     2.360915    -1.175353
Gh(O)     -2.268669     0.171730    -0.673243
Gh(H)     -3.154314    -0.196721    -0.651851
Gh(H)     -2.364629     1.110699    -0.472980
Gh(O)      0.564033    -2.290622     0.250850
Gh(H)      0.526483    -3.181558    -0.103311
Gh(H)      0.306049    -2.360296     1.177983
Gh(O)      0.090363    -0.529424     2.310206
Gh(H)     -0.312898    -0.460726     3.178089
Gh(H)      1.022065    -0.308908     2.429993
Gh(O)     -0.088614     0.533880    -2.309909
Gh(H)     -1.019672     0.311631    -2.431403
Gh(H)      0.316248     0.466368    -3.177171

units ang
no_reorient
no_com
symmetry c1
}

set {
basis        aug-cc-pVTZ
scf_type     df
}

energy("mp2")
