MEMORY 60 GB

molecule dimer {
0 1
Gh(K)      0.000000     0.000000     0.000000
Gh(O)      2.554119    -0.000000     0.000000
Gh(H)      3.147554     0.755364     0.000000
Gh(H)      3.147554    -0.755364     0.000000
Gh(O)     -1.277059     2.211932     0.000000
Gh(H)     -2.227941     2.348180     0.000000
Gh(H)     -0.919613     3.103544     0.000000
O         -1.277059    -2.211932     0.000000
H         -0.919613    -3.103544     0.000000
H         -2.227941    -2.348180     0.000000

units ang
no_reorient
no_com
symmetry c1
}

set {
basis        aug-cc-pVTZ
scf_type     df
}

energy("mp2")
