MEMORY 60 GB

molecule dimer {
1 1
K          0.000000     0.000000     0.000000
O          2.086884    -0.000000    -1.490509
H          2.552025     0.755701    -1.858373
H          2.552025    -0.755701    -1.858373
O         -2.089171    -0.000000    -1.487307
H         -2.554868     0.755701    -1.854466
H         -2.554868    -0.755701    -1.854466
O          0.000353     2.090413     1.485755
H         -0.755264     2.556376     1.852755
H          0.756127     2.556380     1.852429
O          0.000353    -2.090413     1.485755
H         -0.755264    -2.556376     1.852755
H          0.756127    -2.556380     1.852429

units ang
no_reorient
no_com
symmetry c1
}

set {
basis        aug-cc-pVTZ
scf_type     df
}

energy("mp2")
