MEMORY 60 GB

molecule dimer {
0 1
Gh(K)      0.000000     0.000000     0.000000
O          2.562815    -0.694898     0.542792
H          3.373617    -0.354851     0.152568
H          2.804903    -1.571329     0.856340
Gh(O)     -2.014501     1.400138    -0.990096
Gh(H)     -2.534077     0.586214    -1.045531
Gh(H)     -2.644148     2.124800    -0.955822
Gh(O)     -1.898623    -1.351254    -1.253490
Gh(H)     -1.423068    -1.204159    -2.082933
Gh(H)     -2.473179    -2.106495    -1.402920
Gh(O)      0.874127     0.783880     2.274824
Gh(H)      0.884597     1.204885     3.136562
Gh(H)      1.766396     0.455027     2.125638
Gh(O)     -0.113837     0.285375    -2.618088
Gh(H)     -0.754411     0.991430    -2.446719
Gh(H)      0.230518     0.441625    -3.500921

units ang
no_reorient
no_com
symmetry c1
}

set {
basis        aug-cc-pVTZ
scf_type     df
}

energy("mp2")
