MEMORY 60 GB

molecule dimer {
0 1
Gh(K)      0.000000     0.000000     0.000000
Gh(O)      2.654630     0.002171     0.000579
Gh(H)      3.250531     0.754762     0.000935
Gh(H)      3.242121    -0.756990     0.000312
Gh(O)     -0.007276     2.651700     0.006090
Gh(H)     -0.758553     3.248594     0.007697
Gh(H)      0.751349     3.239242     0.007596
Gh(O)     -2.653913     0.004803    -0.000991
Gh(H)     -3.249100    -0.748349    -0.001455
Gh(H)     -3.242057     0.763455    -0.000838
O          0.005359    -2.651635    -0.007866
H          0.759550    -3.244853    -0.009743
H         -0.750301    -3.243005    -0.009704
Gh(O)      0.002441    -0.005300     2.618395
Gh(H)     -0.755182    -0.005025     3.207306
Gh(H)      0.760169    -0.008050     3.207160
Gh(O)      0.001289     0.006833    -2.618434
Gh(H)     -0.756859     0.009596    -3.206659
Gh(H)      0.758499     0.006565    -3.207873

units ang
no_reorient
no_com
symmetry c1
}

set {
basis        aug-cc-pVTZ
scf_type     df
}

energy("mp2")
