MEMORY 60 GB

molecule dimer {
-1 1
F          0.000000     0.000000     0.000000
O         -0.076568     2.088972    -1.641225
H          0.047756     1.249316    -1.145998
H         -0.126727     2.709141    -0.907183
O         -2.239604    -0.106367    -1.427194
H         -1.406974    -0.227633    -0.919555
H         -2.064696     0.749154    -1.831495
O          0.081221     2.231177     1.441604
H          0.211603     1.403872     0.927501
H         -0.768686     2.040619     1.850610
O         -2.079479     0.031941     1.654927
H         -1.240857    -0.075667     1.154159
H         -2.704407     0.077462     0.924594

units ang
no_reorient
no_com
symmetry c1
}

set {
basis        aug-cc-pVTZ
scf_type     df
}

energy("mp2")
