MEMORY 60 GB

molecule dimer {
0 1
Gh(Cl)     0.000000     0.000000     0.000000
O          3.130045    -0.039116     0.000000
H          2.155226    -0.129176     0.000000
H          3.237770     0.913004     0.000000
Gh(O)     -1.531147     2.730256     0.000000
Gh(H)     -0.965743     1.931069     0.000000
Gh(H)     -2.409570     2.347489     0.000000
Gh(O)     -1.598898    -2.691140     0.000000
Gh(H)     -1.189483    -1.801893     0.000000
Gh(H)     -0.828200    -3.260493     0.000000

units ang
no_reorient
no_com
symmetry c1
}

set {
basis        aug-cc-pVTZ
scf_type     df
}

energy("mp2")
