MEMORY 60 GB

molecule dimer {
-1 1
Cl         0.000000     0.000000     0.000000
O         -0.625827     1.305436    -2.845021
H         -0.333603     0.654623    -2.181922
H         -0.401283     2.126388    -2.386172
O         -2.753995     1.248168    -0.821801
H         -1.999726     0.852379    -0.342959
H         -2.381722     1.280045    -1.715069
O         -0.346691     3.107636    -0.517618
H         -0.023288     2.235365    -0.222474
H         -1.299840     2.972506    -0.461474
O         -2.665224    -1.803758    -0.518504
H         -1.763499    -1.508150    -0.317440
H         -3.092618    -0.962083    -0.709237

units ang
no_reorient
no_com
symmetry c1
}

set {
basis        aug-cc-pVTZ
scf_type     df
}

energy("mp2")
