MEMORY 60 GB

molecule dimer {
-1 1
Cl         0.000000     0.000000     0.000000
Gh(O)     -0.625827     1.305436    -2.845021
Gh(H)     -0.333603     0.654623    -2.181922
Gh(H)     -0.401283     2.126388    -2.386172
Gh(O)     -2.753995     1.248168    -0.821801
Gh(H)     -1.999726     0.852379    -0.342959
Gh(H)     -2.381722     1.280045    -1.715069
Gh(O)     -0.346691     3.107636    -0.517618
Gh(H)     -0.023288     2.235365    -0.222474
Gh(H)     -1.299840     2.972506    -0.461474
Gh(O)     -2.665224    -1.803758    -0.518504
Gh(H)     -1.763499    -1.508150    -0.317440
Gh(H)     -3.092618    -0.962083    -0.709237

units ang
no_reorient
no_com
symmetry c1
}

set {
basis        aug-cc-pVTZ
scf_type     df
}

energy("mp2")
