MEMORY 60 GB

molecule dimer {
0 1
Gh(Cl)     0.000000     0.000000     0.000000
Gh(O)      1.193847     3.059880    -0.191540
Gh(H)      1.050622     2.135766     0.059877
Gh(H)      0.488373     3.190725    -0.833172
Gh(O)     -1.255328     2.203026    -1.849559
Gh(H)     -0.728175     1.510309    -1.405975
Gh(H)     -1.946042     2.352910    -1.192080
Gh(O)     -2.899295     1.180833     0.498000
Gh(H)     -1.947579     0.986003     0.566824
Gh(H)     -3.147755     0.570971    -0.212177
O         -1.994106    -1.093016     2.374025
H         -1.243096    -0.952935     1.778982
H         -2.613084    -0.428489     2.054550
Gh(O)     -2.567289    -0.530699    -1.853207
Gh(H)     -1.770490    -0.696869    -1.319972
Gh(H)     -2.317304     0.282618    -2.307820

units ang
no_reorient
no_com
symmetry c1
}

set {
basis        aug-cc-pVTZ
scf_type     df
}

energy("mp2")
