MEMORY 60 GB

molecule dimer {
-1 1
Cl     0.000000     0.000000     0.000000
--
0 1
O      1.083689     1.019284    -2.849619
H      0.880687     0.456888    -2.083836
H      1.032320     1.893726    -2.438242
O     -0.211212     3.060275    -1.192583
H     -0.176407     2.270776    -0.630950
H     -0.865972     2.815740    -1.865417
O     -2.730463    -0.064418    -1.476959
H     -1.897593     0.133251    -1.001609
H     -2.589112    -0.999855    -1.683691
O     -1.537426    -2.692392    -1.006896
H     -0.795193    -2.078400    -0.894851
H     -1.998456    -2.564264    -0.165396
O     -2.637711    -1.271188     1.306531
H     -1.756257    -0.872341     1.206380
H     -3.134176    -0.785556     0.637347
O     -1.665311     1.785511    -3.369201
H     -0.781589     1.388004    -3.419015
H     -2.171017     1.136460    -2.853942

units ang
no_reorient
no_com
symmetry c1
}

set {
basis        aug-cc-pVTZ
scf_type     df
}

energy("mp2", bsse_type="cp")
