MEMORY 60 GB

molecule dimer {
-1 1
Br         0.000000     0.000000     0.000000
Gh(O)      3.259584    -0.042170     0.000000
Gh(H)      2.285646    -0.124447     0.000000
Gh(H)      3.375999     0.909134    -0.000000
Gh(O)     -1.593272     2.843968    -0.000000
Gh(H)     -1.035049     2.041651     0.000000
Gh(H)     -2.475333     2.469134    -0.000000
Gh(O)     -1.666313    -2.801798    -0.000000
Gh(H)     -1.250597    -1.917204     0.000000
Gh(H)     -0.900666    -3.378268    -0.000000

units ang
no_reorient
no_com
symmetry c1
}

set {
basis        aug-cc-pVTZ
scf_type     df
}

energy("mp2")
