MEMORY 60 GB

molecule dimer {
0 1
Gh(Br)     0.000000     0.000000     0.000000
Gh(O)      0.553611     2.534250    -2.078110
Gh(H)      0.629338     1.653964    -1.672755
Gh(H)      0.306285     3.057750    -1.302436
O         -2.264363     1.718106    -1.669804
H         -1.819846     1.014407    -1.163465
H         -1.513796     2.067261    -2.169836
Gh(O)     -0.808349     3.157421     0.457372
Gh(H)     -0.454952     2.261911     0.607349
Gh(H)     -1.567751     2.947410    -0.103931
Gh(O)     -1.611921    -1.947691     2.093967
Gh(H)     -1.065322    -1.430972     1.474055
Gh(H)     -2.391561    -1.397160     2.181608

units ang
no_reorient
no_com
symmetry c1
}

set {
basis        aug-cc-pVTZ
scf_type     df
}

energy("mp2")
