MEMORY 60 GB

molecule dimer {
-1 1
Br         0.000000     0.000000     0.000000
O          3.120425    -0.826381    -0.653955
H          2.175049    -0.688085    -0.469907
H          3.482944     0.051128    -0.523257
O         -3.065056     0.696841    -1.021874
H         -2.151256     0.841718    -0.723588
H         -3.276492    -0.116119    -0.543554
O         -2.496649    -2.067458    -0.054316
H         -1.678532    -1.545525     0.055514
H         -2.454744    -2.255828    -1.000530
O         -1.575261    -1.133354     2.756572
H         -0.995542    -0.711630     2.103923
H         -2.135217    -1.683743     2.202281
O         -1.631762    -1.165015    -2.753747
H         -0.868527    -0.968596    -2.190041
H         -2.244185    -0.471353    -2.467719

units ang
no_reorient
no_com
symmetry c1
}

set {
basis        aug-cc-pVTZ
scf_type     df
}

energy("mp2")
