MEMORY 60 GB

molecule dimer {
-1 1
Br         0.000000     0.000000     0.000000
O          3.254549    -0.104249    -0.528795
H          2.296582    -0.168320    -0.374734
H          3.387302     0.841606    -0.608219
O         -2.518083     2.051371    -0.581415
H         -1.703853     1.674382    -0.207010
H         -2.516563     1.636470    -1.456756
O         -4.082211    -0.088074     0.445581
H         -3.647518     0.737277     0.167576
H         -3.629719    -0.757063    -0.088344
O         -2.310157    -2.192940    -0.581192
H         -1.513275    -1.631592    -0.523839
H         -2.417527    -2.424018     0.352130
O         -2.198556    -1.336618     2.238290
H         -1.416373    -0.945329     1.821464
H         -2.916803    -0.802952     1.862374
O         -1.898927     0.119536    -2.674112
H         -1.161002     0.090721    -2.038380
H         -2.398752    -0.668230    -2.436475

units ang
no_reorient
no_com
symmetry c1
}

set {
basis        aug-cc-pVTZ
scf_type     df
}

energy("mp2")
