MEMORY 60 GB

molecule dimer {
0 1
O      0.000000     0.000000     0.000000
H      0.480835     0.780169    -0.277610
H      0.626645    -0.775519    -0.361794
--
-1 1
F      2.426389     0.000000     0.000000

units ang
no_reorient
no_com
symmetry c1
}

set {
basis        aug-cc-pVTZ
scf_type     df
}

energy("mp2", bsse_type="cp")
