MEMORY 60 GB

molecule dimer {
0 1
O      0.000000     0.000000     0.000000
H      0.292404     0.864229    -0.292404
H      0.561567    -0.588334    -0.561567
--
-1 1
Cl     3.070352     0.000000     0.000000

units ang
no_reorient
no_com
symmetry c1
}

set {
basis        aug-cc-pVTZ
scf_type     df
}

energy("mp2", bsse_type="cp")
