MEMORY 60 GB

molecule dimer {
1 1
Cl         0.000000     0.000000     0.000000
Li         0.000000     2.029797     0.000000
Li         2.638736     0.000000     0.000000

units ang
no_reorient
no_com
symmetry c1
}

set {
basis        aug-cc-pVTZ
scf_type     df
}

energy("mp2")
