MEMORY 60 GB

molecule dimer {
0 1
F      0.000000     0.000000     0.000000
K      0.000000     2.175180     0.000000
--
1 1
K      4.350360     0.000000     0.000000

units ang
no_reorient
no_com
symmetry c1
}

set {
basis        aug-cc-pVTZ
scf_type     df
}

energy("mp2", bsse_type="cp")
