MEMORY 60 GB

molecule dimer {
1 1
Gh(Cl)     0.000000     0.000000     0.000000
Gh(K)      0.000000     2.633546     0.000000
K          3.160255     0.000000     0.000000

units ang
no_reorient
no_com
symmetry c1
}

set {
basis        aug-cc-pVTZ
scf_type     df
}

energy("mp2")
