MEMORY 60 GB

molecule dimer {
1 1
Li         0.000000     0.000000     0.000000
Gh(O)     -1.713431    -0.192651    -0.922553
Gh(H)     -2.074049    -0.912705    -1.508446
Gh(H)     -1.723588     0.568295    -1.499263
Gh(O)      0.348439    -1.893986     0.119571
Gh(H)     -0.123004    -2.715643     0.131494
Gh(H)      1.215094    -2.096468    -0.252221
Gh(O)     -0.160179     0.708868     1.726520
Gh(H)     -0.768047     1.453803     1.689983
Gh(H)     -0.342640     0.096572     2.429882
Gh(O)      1.531978     0.426968    -1.011974
Gh(H)      2.042686    -0.201545    -1.515655
Gh(H)      2.129691     0.960383    -0.509585

units ang
no_reorient
no_com
symmetry c1
}

set {
basis        aug-cc-pVTZ
scf_type     df
}

energy("mp2")
