MEMORY 60 GB

molecule dimer {
1 1
Li     0.000000     0.000000     0.000000
--
0 1
O      0.893831    -0.282893     1.641377
H      0.718451     0.374103     2.337286
H      1.825254    -0.373815     1.492424
O      1.120839     1.073113    -0.996718
H      1.303960     0.761379    -1.868653
H      0.652772     1.948855    -1.098737
O     -1.672896     0.785810     0.484622
H     -2.287744     0.750544    -0.303037
H     -1.709276     1.657872     0.942048

units ang
no_reorient
no_com
symmetry c1
}

set {
basis        aug-cc-pVTZ
scf_type     df
}

energy("mp2", bsse_type="cp")
