MEMORY 60 GB

molecule dimer {
0 1
Gh(Li)     0.000000     0.000000     0.000000
Gh(O)      0.266584     0.944052    -1.709450
Gh(H)      0.979641     0.533414    -2.222257
Gh(H)      0.507280     1.865020    -1.611472
O          1.380118    -0.496219     0.894533
H          1.295780    -0.523941     1.838069
H          1.512954    -1.400379     0.559638
Gh(O)     -1.093945     1.554286     0.618531
Gh(H)     -1.031922     1.943137     1.492156
Gh(H)     -1.412017     2.309903     0.160618
Gh(O)     -1.327662    -1.629141    -0.158356
Gh(H)     -2.193596    -1.227361    -0.264880
Gh(H)     -1.324595    -2.080127     0.693064

units ang
no_reorient
no_com
symmetry c1
}

set {
basis        aug-cc-pVTZ
scf_type     df
}

energy("mp2")
