MEMORY 60 GB

molecule dimer {
0 1
Gh(Li)     0.000000     0.000000     0.000000
Gh(O)      1.362177     0.494903    -1.256822
Gh(H)      1.833323    -0.139138    -1.763691
Gh(H)      2.031082     1.092765    -0.979248
Gh(O)     -1.382938    -0.607154    -1.085086
Gh(H)     -1.865008     0.071796    -1.477591
Gh(H)     -1.178693    -1.330940    -1.688702
O          0.262721    -1.170129     1.291731
H          1.058433    -1.126622     1.806015
H          0.186388    -2.100896     1.196103
Gh(O)     -0.396836     1.829554     0.256520
Gh(H)     -0.272323     2.420521     0.947354
Gh(H)     -0.490326     2.381443    -0.505406

units ang
no_reorient
no_com
symmetry c1
}

set {
basis        aug-cc-pVTZ
scf_type     df
}

energy("mp2")
