MEMORY 60 GB

molecule dimer {
1 1
Li         0.000000     0.000000     0.000000
O         -1.238463    -0.786538     1.271879
H         -2.189206    -1.079607     1.210652
H         -1.227083    -0.332340     2.141372
O          1.842945    -0.344527    -0.143005
H          2.300244     0.408784    -0.637790
H          1.937252    -1.198420    -0.570477
O         -0.517595    -0.483751    -1.762158
H         -0.134699    -1.226200    -2.237230
H         -1.418849    -0.662634    -1.774291

units ang
no_reorient
no_com
symmetry c1
}

set {
basis        aug-cc-pVTZ
scf_type     df
}

energy("mp2")
