MEMORY 60 GB

molecule dimer {
1 1
Li         0.000000     0.000000     0.000000
Gh(O)      1.639321    -0.729901    -0.741028
Gh(H)      2.317640    -0.292230    -0.190534
Gh(H)      1.830515    -0.437536    -1.637740
Gh(O)     -1.213233    -0.784151    -1.126646
Gh(H)     -2.144486    -0.625012    -0.756992
Gh(H)     -1.331930    -0.459099    -2.088330
Gh(O)      0.356812     1.866213     0.273167
Gh(H)      0.727568     1.761017     1.166760
Gh(H)     -0.181844     2.672161     0.214819
Gh(O)     -0.385442    -0.624008     1.841742
Gh(H)     -1.072760     0.019128     2.225122
Gh(H)      0.268191    -0.695409     2.554002

units ang
no_reorient
no_com
symmetry c1
}

set {
basis        aug-cc-pVTZ
scf_type     df
}

energy("mp2")
