MEMORY 60 GB

molecule dimer {
0 1
Gh(Li)     0.000000     0.000000     0.000000
Gh(O)      1.263765    -0.267496     1.619238
Gh(H)      2.159690     0.080433     1.842446
Gh(H)      0.723105    -0.277224     2.376080
Gh(O)     -1.351525    -1.332306     0.260912
Gh(H)     -2.108274    -1.702532    -0.181780
Gh(H)     -1.298557    -1.835541     1.074812
O          1.333124     0.996804    -0.988147
H          2.221731     0.663227    -1.128336
H          1.028669     1.301661    -1.813392
Gh(O)     -1.085799     1.589562     0.765920
Gh(H)     -1.584621     2.287494     0.264073
Gh(H)     -1.694977     1.307918     1.432451

units ang
no_reorient
no_com
symmetry c1
}

set {
basis        aug-cc-pVTZ
scf_type     df
}

energy("mp2")
