MEMORY 60 GB

molecule dimer {
1 1
Li         0.000000     0.000000     0.000000
O         -0.428160     1.212107    -1.751504
H          0.387713     1.643643    -1.963741
H         -1.121361     1.575916    -2.325391
O          1.781596    -0.020473     0.442877
H          2.189669     0.324703     1.208714
H          2.203752    -0.870775     0.253747
O         -1.533512     0.539063     0.971746
H         -2.298372     0.645210     0.470736
H         -1.196049     1.459017     1.138273
O         -1.049215    -1.406233    -0.742604
H         -1.939552    -1.034779    -0.873238
H         -1.113130    -2.374025    -0.865088

units ang
no_reorient
no_com
symmetry c1
}

set {
basis        aug-cc-pVTZ
scf_type     df
}

energy("mp2")
