MEMORY 60 GB

molecule dimer {
0 1
Gh(Li)     0.000000     0.000000     0.000000
O          0.834436    -0.241329    -1.578276
H          1.191917    -1.111872    -1.723723
H          1.469698     0.437227    -1.857302
Gh(O)     -1.157150    -1.678256     0.354050
Gh(H)     -2.090219    -1.865260     0.521759
Gh(H)     -0.712408    -2.505514     0.115149
Gh(O)     -1.517712     1.412924    -0.255778
Gh(H)     -1.084382     2.261262    -0.283873
Gh(H)     -1.989995     1.420311     0.576573
Gh(O)      0.904310     1.187102     1.315687
Gh(H)      1.168203     0.886967     2.209891
Gh(H)      0.442074     1.996661     1.434603

units ang
no_reorient
no_com
symmetry c1
}

set {
basis        aug-cc-pVTZ
scf_type     df
}

energy("mp2")
