MEMORY 60 GB

molecule dimer {
0 1
Gh(Li)     0.000000     0.000000     0.000000
Gh(O)      0.093466     1.102529     1.398467
Gh(H)     -0.286264     0.781074     2.237075
Gh(H)      1.062890     1.237794     1.569113
O         -0.817145    -1.577921     0.295809
H         -0.126605    -2.261842     0.420003
H         -1.199869    -1.626482    -0.594808

units ang
no_reorient
no_com
symmetry c1
}

set {
basis        aug-cc-pVTZ
scf_type     df
}

energy("mp2")
