MEMORY 60 GB

molecule dimer {
1 1
Li         0.000000     0.000000     0.000000
Gh(O)     -1.794227     0.878304     0.383152
Gh(H)     -2.284044     0.065626     0.360832
Gh(H)     -2.211283     1.348316    -0.381184
Gh(O)      0.587966    -1.606327     0.751206
Gh(H)      0.384051    -2.413930     0.275990
Gh(H)      1.532090    -1.679654     1.064559
Gh(O)      1.426308     1.329057     0.381484
Gh(H)      1.492507     1.221218     1.387216
Gh(H)      2.369890     1.360172     0.089581
Gh(O)     -0.005725    -0.582202    -1.970709
Gh(H)     -0.732065    -0.750880    -2.621085
Gh(H)      0.674197    -1.253645    -2.250473

units ang
no_reorient
no_com
symmetry c1
}

set {
basis        aug-cc-pVTZ
scf_type     df
}

energy("mp2")
