MEMORY 60 GB

molecule dimer {
0 1
Gh(Li)     0.000000     0.000000     0.000000
Gh(O)     -0.984691    -0.969052     1.267687
Gh(H)     -1.298677    -0.512598     2.085258
Gh(H)     -1.774992    -1.550102     1.066930
Gh(O)      0.635689     1.405102     0.678468
Gh(H)      1.386421     1.451552     1.210237
Gh(H)     -0.135008     1.841375     1.074997
Gh(O)      1.465994    -1.501291    -0.557694
Gh(H)      1.460995    -2.365831    -0.942800
Gh(H)      1.959287    -0.902242    -1.128803
O         -0.443803     0.020399    -1.936730
H         -0.816450    -0.798888    -2.251870
H         -1.133766     0.682308    -2.119070

units ang
no_reorient
no_com
symmetry c1
}

set {
basis        aug-cc-pVTZ
scf_type     df
}

energy("mp2")
