MEMORY 60 GB

molecule dimer {
0 1
Gh(Li)     0.000000     0.000000     0.000000
Gh(O)      0.699917    -1.605590    -0.538374
Gh(H)      0.331929    -2.479437    -0.070724
Gh(H)      1.595037    -1.827290    -0.867616
O         -0.415776     0.409880     1.974965
H         -0.632469    -0.216349     2.683802
H         -1.094302     1.112373     2.095595
Gh(O)      1.114874     1.438486    -0.655299
Gh(H)      2.041900     1.265101    -0.736658
Gh(H)      0.981857     2.289101    -0.189952
Gh(O)     -1.728885     0.283644    -1.130470
Gh(H)     -1.722627    -0.186960    -2.021005
Gh(H)     -2.497560    -0.024047    -0.644402

units ang
no_reorient
no_com
symmetry c1
}

set {
basis        aug-cc-pVTZ
scf_type     df
}

energy("mp2")
