MEMORY 60 GB

molecule dimer {
0 1
Gh(Li)     0.000000     0.000000     0.000000
O          1.299347     0.956897     0.998050
H          1.806091     0.778889     1.791766
H          1.907700     1.397453     0.354713
Gh(O)      0.788217    -1.762217    -0.333958
Gh(H)      1.729744    -1.520162    -0.415695
Gh(H)      0.651676    -2.440430    -1.018478
Gh(O)     -0.077999     0.850460    -1.769933
Gh(H)     -0.317966     0.168123    -2.426238
Gh(H)      0.304412     1.595957    -2.317515
Gh(O)     -1.921903    -0.461436     0.503499
Gh(H)     -1.892553    -1.068522     1.298601
Gh(H)     -2.648587     0.212851     0.631248

units ang
no_reorient
no_com
symmetry c1
}

set {
basis        aug-cc-pVTZ
scf_type     df
}

energy("mp2")
