MEMORY 60 GB

molecule dimer {
1 1
Li     0.000000     0.000000     0.000000
--
0 1
O     -1.162740     1.014321     1.159155
H     -0.442200     0.986359     1.801023
H     -1.860620     0.437939     1.470678
O      1.767946     0.216161     0.641309
H      2.204606    -0.360946     0.000281
H      2.328164     0.028607     1.374471
O     -0.688386    -1.786161     0.152623
H     -1.542320    -1.770103    -0.317065
H     -0.023824    -2.188879    -0.406850
O      0.091354     1.071377    -1.593210
H     -0.332237     0.917174    -2.464800
H      0.896186     1.508063    -1.838482

units ang
no_reorient
no_com
symmetry c1
}

set {
basis        aug-cc-pVTZ
scf_type     df
}

energy("mp2", bsse_type="cp")
