MEMORY 60 GB

molecule dimer {
0 1
Gh(Li)     0.000000     0.000000     0.000000
Gh(O)     -1.032842     0.396425    -1.658178
Gh(H)     -1.279584     0.014094    -2.509117
Gh(H)     -1.562276     1.236030    -1.642107
Gh(O)     -0.418356     0.747917     1.594078
Gh(H)      0.358018     0.959903     2.183691
Gh(H)     -0.999293     1.461192     1.564220
O          1.442274     1.084928    -0.518287
H          1.966751     1.852884    -0.286094
H          1.473632     0.916597    -1.471009
Gh(O)      0.031737    -1.911179     0.426641
Gh(H)      0.902421    -2.258501     0.761336
Gh(H)     -0.721623    -2.124603     0.942511

units ang
no_reorient
no_com
symmetry c1
}

set {
basis        aug-cc-pVTZ
scf_type     df
}

energy("mp2")
