MEMORY 60 GB

molecule dimer {
0 1
Gh(Li)     0.000000     0.000000     0.000000
Gh(O)      1.248744    -1.546356    -0.063915
Gh(H)      1.572886    -2.181593    -0.699843
Gh(H)      1.029516    -2.049213     0.724090
Gh(O)      0.765829     1.000564     1.387872
Gh(H)      0.151349     0.926457     2.100303
Gh(H)      1.657507     0.667016     1.546448
Gh(O)     -1.671574    -0.529749     0.598972
Gh(H)     -1.713174    -1.282973     1.185456
Gh(H)     -2.204628    -0.664548    -0.213532
O         -0.147700     1.539800    -1.361374
H          0.650302     2.003122    -1.769900
H         -0.810619     1.511850    -2.060867

units ang
no_reorient
no_com
symmetry c1
}

set {
basis        aug-cc-pVTZ
scf_type     df
}

energy("mp2")
