MEMORY 60 GB

molecule dimer {
1 1
Li     0.000000     0.000000     0.000000
--
0 1
O      0.974801    -1.457324    -0.803063
H      1.616648    -1.821333    -0.185071
H      0.543412    -2.209643    -1.228589
O     -1.022460    -0.705935     1.627113
H     -1.734123    -0.103167     1.913218
H     -1.500284    -1.468483     1.235082
O     -1.471986     0.365186    -1.104744
H     -1.395966     1.135543    -1.703561
H     -2.409858     0.169828    -1.010243
O      1.111405     1.672966    -0.206272
H      1.061116     2.268920     0.588148
H      1.217032     2.358049    -0.946568

units ang
no_reorient
no_com
symmetry c1
}

set {
basis        aug-cc-pVTZ
scf_type     df
}

energy("mp2", bsse_type="cp")
