MEMORY 60 GB

molecule dimer {
1 1
Li     0.000000     0.000000     0.000000
--
0 1
O      0.430496    -1.782940     0.114535
H     -0.122461    -2.196776     0.778018
H      0.095863    -2.257410    -0.608199
O     -0.871002     0.606188     1.579229
H     -1.261790     1.443134     1.764322
H     -0.325521     0.477508     2.360804
O     -1.263445     0.240469    -1.487618
H     -1.400715    -0.414623    -2.199240
H     -1.655584     1.079449    -1.825628
O      1.839475     0.772754    -0.481884
H      2.223970     0.990559     0.396906
H      1.766020     1.624400    -0.919013

units ang
no_reorient
no_com
symmetry c1
}

set {
basis        aug-cc-pVTZ
scf_type     df
}

energy("mp2", bsse_type="cp")
