MEMORY 60 GB

molecule dimer {
1 1
Li     0.000000     0.000000     0.000000
--
0 1
O      1.639321    -0.729901    -0.741028
H      2.317640    -0.292230    -0.190534
H      1.830515    -0.437536    -1.637740
O     -1.213233    -0.784151    -1.126646
H     -2.144486    -0.625012    -0.756992
H     -1.331930    -0.459099    -2.088330
O      0.356812     1.866213     0.273167
H      0.727568     1.761017     1.166760
H     -0.181844     2.672161     0.214819
O     -0.385442    -0.624008     1.841742
H     -1.072760     0.019128     2.225122
H      0.268191    -0.695409     2.554002

units ang
no_reorient
no_com
symmetry c1
}

set {
basis        aug-cc-pVTZ
scf_type     df
}

energy("mp2", bsse_type="cp")
