MEMORY 60 GB

molecule dimer {
1 1
Li     0.000000     0.000000     0.000000
--
0 1
O     -0.398786    -1.589021    -1.083653
H      0.104594    -1.896182    -1.796161
H     -0.340299    -2.316178    -0.427544
O      1.473191    -0.539863     0.795211
H      2.355782    -0.467384     0.412253
H      1.505819    -1.406148     1.233169
O      0.501553     1.463017    -1.262223
H     -0.051961     1.314977    -2.033203
H      1.407051     1.606647    -1.681690
O     -1.690669     0.465935     0.912623
H     -1.690927     0.654825     1.943650
H     -2.533637     0.109345     0.695255

units ang
no_reorient
no_com
symmetry c1
}

set {
basis        aug-cc-pVTZ
scf_type     df
}

energy("mp2", bsse_type="cp")
