MEMORY 60 GB

molecule dimer {
1 1
Li         0.000000     0.000000     0.000000
Gh(O)      0.310094    -1.762459     0.424676
Gh(H)      1.019755    -2.370888     0.219586
Gh(H)     -0.545566    -2.125910     0.340252
Gh(O)      1.379131     0.920850    -0.326352
Gh(H)      2.291762     0.787935     0.009136
Gh(H)      1.516037     1.585216    -1.021019
Gh(O)     -1.539823     0.503766    -1.067499
Gh(H)     -2.441997     0.161504    -1.061971
Gh(H)     -1.551102     1.250548    -1.642154

units ang
no_reorient
no_com
symmetry c1
}

set {
basis        aug-cc-pVTZ
scf_type     df
}

energy("mp2")
