MEMORY 60 GB

molecule dimer {
1 1
Li         0.000000     0.000000     0.000000
Gh(O)      1.858934    -0.623976    -0.526781
Gh(H)      1.848269    -1.539102    -0.846784
Gh(H)      2.660861    -0.574173     0.041889
Gh(O)     -0.075512     1.555018     1.114340
Gh(H)     -0.140334     2.353388     0.602470
Gh(H)      0.715955     1.755071     1.596003
Gh(O)     -0.507566     0.606809    -1.968779
Gh(H)     -0.605809    -0.214582    -2.524121
Gh(H)     -0.969069     1.265079    -2.433698
Gh(O)     -0.854187    -1.323968     1.103405
Gh(H)     -1.682373    -1.653239     0.783875
Gh(H)     -1.040480    -0.735892     1.855917

units ang
no_reorient
no_com
symmetry c1
}

set {
basis        aug-cc-pVTZ
scf_type     df
}

energy("mp2")
