MEMORY 60 GB

molecule dimer {
0 1
Gh(Li)     0.000000     0.000000     0.000000
Gh(O)      1.296978    -1.022674    -0.940549
Gh(H)      2.066028    -0.402028    -0.993363
Gh(H)      1.641941    -1.811888    -0.528858
O         -0.396746     1.474444    -1.474878
H         -1.280057     1.910080    -1.499885
H         -0.029846     1.581237    -2.348859
Gh(O)     -1.483670    -0.955584    -0.302297
Gh(H)     -2.040982    -0.609953    -1.043081
Gh(H)     -1.234753    -1.872425    -0.358799
Gh(O)      0.250460     0.847898     1.880600
Gh(H)     -0.509855     0.604026     2.413481
Gh(H)      0.341405     1.822100     1.938332

units ang
no_reorient
no_com
symmetry c1
}

set {
basis        aug-cc-pVTZ
scf_type     df
}

energy("mp2")
