MEMORY 60 GB

molecule dimer {
1 1
Li     0.000000     0.000000     0.000000
--
0 1
O     -1.781604    -0.308774     0.672957
H     -2.416149    -0.940715     1.042678
H     -2.210738     0.488272     0.415933
O      1.567111     0.207798     1.466968
H      1.921405    -0.551822     1.871146
H      1.660695     0.824584     2.244772
O     -0.361356     1.821734    -0.682767
H     -0.637570     2.716843    -0.478202
H     -0.758879     1.674910    -1.588356
O      0.457511    -1.012211    -1.602176
H     -0.028832    -1.739527    -1.960288
H      1.106696    -0.664268    -2.216768

units ang
no_reorient
no_com
symmetry c1
}

set {
basis        aug-cc-pVTZ
scf_type     df
}

energy("mp2", bsse_type="cp")
