MEMORY 60 GB

molecule dimer {
1 1
Li     0.000000     0.000000     0.000000
--
0 1
O     -0.877901    -0.669804    -1.764505
H     -0.604585    -0.141250    -2.476090
H     -0.318802    -1.470888    -1.866124
O     -0.675625    -0.903094     1.504513
H     -1.561938    -0.688831     1.846484
H     -0.636237    -1.802238     1.249660
O     -0.291915     1.880346     0.276855
H     -0.395520     2.489150    -0.423060
H     -0.773999     2.031365     1.070741
O      1.738779    -0.892995    -0.171427
H      1.936336    -1.888660    -0.006936
H      2.351816    -0.434925     0.435878

units ang
no_reorient
no_com
symmetry c1
}

set {
basis        aug-cc-pVTZ
scf_type     df
}

energy("mp2", bsse_type="cp")
