MEMORY 60 GB

molecule dimer {
1 1
Li         0.000000     0.000000     0.000000
O         -0.572571     1.726043     0.455178
H         -1.087826     2.378042     0.937786
H          0.159044     2.237056     0.025785
O          0.941273    -0.777166     1.652463
H          0.784326    -1.744419     1.387688
H          0.345499    -0.483212     2.382628
O          1.123724     0.106542    -1.672682
H          1.108221     0.674321    -2.471162
H          1.738415    -0.641429    -2.005010
O         -1.285911    -1.203424    -0.729095
H         -1.453579    -1.473990    -1.654808
H         -2.103778    -1.340655    -0.244827

units ang
no_reorient
no_com
symmetry c1
}

set {
basis        aug-cc-pVTZ
scf_type     df
}

energy("mp2")
