MEMORY 60 GB

molecule dimer {
1 1
Li         0.000000     0.000000     0.000000
O          1.023000     0.620441     1.583861
H          1.455219     0.253028     2.357655
H          1.073738     1.617144     1.656624
O          0.990010    -1.210458    -1.226372
H          0.996585    -0.767777    -2.058657
H          0.892016    -2.180068    -1.332978
O         -0.199397     1.811129    -0.706428
H         -0.471302     2.120332    -1.569275
H         -0.590440     2.361535    -0.067867

units ang
no_reorient
no_com
symmetry c1
}

set {
basis        aug-cc-pVTZ
scf_type     df
}

energy("mp2")
