MEMORY 60 GB

molecule dimer {
0 1
Gh(Li)     0.000000     0.000000     0.000000
Gh(O)      0.929126    -1.519541     0.562943
Gh(H)      0.754313    -1.902667     1.397259
Gh(H)      1.807708    -1.139414     0.634185
Gh(O)     -0.504010     0.489688    -1.758484
Gh(H)     -0.791966    -0.159959    -2.448101
Gh(H)     -0.336521     1.310441    -2.247888
Gh(O)      0.902574     1.789651     0.523627
Gh(H)      1.832881     2.030759     0.319652
Gh(H)      0.670851     2.026998     1.405913
O         -1.475233     0.100022     1.458728
H         -1.332384     0.611866     2.288554
H         -2.406648     0.065706     1.327701

units ang
no_reorient
no_com
symmetry c1
}

set {
basis        aug-cc-pVTZ
scf_type     df
}

energy("mp2")
