MEMORY 60 GB

molecule dimer {
0 1
Gh(Li)     0.000000     0.000000     0.000000
Gh(O)      0.647883     0.164741    -1.949481
Gh(H)      0.795272    -0.525507    -2.602115
Gh(H)      0.457108     1.105193    -2.354509
O         -0.976045     1.405748     0.625342
H         -0.496767     2.104540     1.009624
H         -1.582079     1.799875     0.027250
Gh(O)     -1.260034    -1.585226     0.021824
Gh(H)     -0.751180    -2.408299    -0.156525
Gh(H)     -2.038513    -1.751498    -0.490334
Gh(O)      1.554816    -0.718133     0.753645
Gh(H)      1.658146    -1.557676     1.200674
Gh(H)      2.157510    -0.074449     1.263032

units ang
no_reorient
no_com
symmetry c1
}

set {
basis        aug-cc-pVTZ
scf_type     df
}

energy("mp2")
