MEMORY 60 GB

molecule dimer {
0 1
Gh(Li)     0.000000     0.000000     0.000000
Gh(O)     -1.680746     0.276584    -0.524122
Gh(H)     -2.436906    -0.277091    -0.431906
Gh(H)     -1.899859     1.075426    -0.063132
O         -0.071560    -1.420903     1.240510
H         -0.473745    -2.213538     0.802591
H         -0.780622    -1.152250     1.882048
Gh(O)      0.700028     1.207376     1.195221
Gh(H)      0.272867     1.039453     2.053918
Gh(H)      0.629594     2.124003     0.978537
Gh(O)      1.186987    -0.149614    -1.450273
Gh(H)      1.341045     0.793609    -1.646914
Gh(H)      0.746015    -0.501685    -2.225984

units ang
no_reorient
no_com
symmetry c1
}

set {
basis        aug-cc-pVTZ
scf_type     df
}

energy("mp2")
