MEMORY 60 GB

molecule dimer {
0 1
Gh(Li)     0.000000     0.000000     0.000000
Gh(O)     -0.979497     1.661715    -0.383017
Gh(H)     -1.942918     1.715495    -0.206976
Gh(H)     -0.939941     1.583322    -1.344780
Gh(O)     -0.874120    -1.338989    -0.808144
Gh(H)     -1.695116    -1.751423    -0.533523
Gh(H)     -0.327135    -2.063220    -1.130349
Gh(O)      0.608715     0.248553     1.781960
Gh(H)      1.153588     0.893218     2.259355
Gh(H)     -0.175350     0.061724     2.297094
O          1.616898    -0.021797    -1.057657
H          1.564752    -0.251149    -1.971527
H          2.506419    -0.320433    -0.827794

units ang
no_reorient
no_com
symmetry c1
}

set {
basis        aug-cc-pVTZ
scf_type     df
}

energy("mp2")
