MEMORY 60 GB

molecule dimer {
1 1
Li         0.000000     0.000000     0.000000
O         -0.807644    -1.260844     1.138757
H         -1.635519    -1.682311     1.327527
H         -0.286736    -1.509910     1.936379
O          1.759330    -0.684963    -0.247588
H          2.421120    -1.170058     0.269103
H          2.085332    -0.643141    -1.168976
O          0.088216     1.807821     0.564857
H          0.651141     1.422611     1.287139
H         -0.618624     2.368710     0.980290
O         -1.057908    -0.426688    -1.597347
H         -0.748099    -0.459222    -2.547429
H         -1.560666    -1.268597    -1.484747

units ang
no_reorient
no_com
symmetry c1
}

set {
basis        aug-cc-pVTZ
scf_type     df
}

energy("mp2")
