MEMORY 60 GB

molecule dimer {
1 1
Li         0.000000     0.000000     0.000000
O         -0.640365     1.689708    -0.437904
H         -0.947848     2.436251     0.118257
H         -0.375875     2.071206    -1.343003
O         -0.938579    -0.924804    -1.558802
H         -1.517519    -0.334733    -2.007314
H         -0.339862    -1.423081    -2.166337
O          1.855579     0.005682    -0.344725
H          2.067217    -0.495737    -1.130002
H          2.498269    -0.321495     0.326646
O         -0.731485    -1.139576     1.603199
H         -0.628082    -0.542600     2.334045
H         -1.652610    -1.061287     1.341316

units ang
no_reorient
no_com
symmetry c1
}

set {
basis        aug-cc-pVTZ
scf_type     df
}

energy("mp2")
