MEMORY 60 GB

molecule dimer {
1 1
Li         0.000000     0.000000     0.000000
Gh(O)      1.657941    -1.223362    -0.380746
Gh(H)      1.563734    -2.109058    -0.739610
Gh(H)      2.274856    -1.293852     0.367845
Gh(O)     -0.318414     0.739503     1.570188
Gh(H)     -0.230935     0.394084     2.496215
Gh(H)     -1.144386     1.187689     1.648398
Gh(O)      0.086934     1.338117    -1.502778
Gh(H)      0.226770     0.880203    -2.354309
Gh(H)      0.560941     2.175826    -1.600435
Gh(O)     -0.994637    -1.379905    -1.081241
Gh(H)     -1.093316    -1.138620    -1.989274
Gh(H)     -0.474365    -2.168984    -1.125378

units ang
no_reorient
no_com
symmetry c1
}

set {
basis        aug-cc-pVTZ
scf_type     df
}

energy("mp2")
