MEMORY 60 GB

molecule dimer {
1 1
Li         0.000000     0.000000     0.000000
Gh(O)     -1.789506    -1.056934    -0.088662
Gh(H)     -2.270001    -1.416814     0.653930
Gh(H)     -2.363175    -1.218597    -0.863242
Gh(O)      0.279767     1.907371     0.284771
Gh(H)      0.476565     2.388574    -0.523007
Gh(H)      1.091074     1.967825     0.824365
Gh(O)      0.700472    -0.401485    -1.683438
Gh(H)      0.674482    -1.335976    -1.879120
Gh(H)      0.103655     0.037381    -2.268641
Gh(O)      1.421464    -0.932024     0.947236
Gh(H)      1.436621    -1.871810     0.673333
Gh(H)      1.380837    -1.071578     1.956669

units ang
no_reorient
no_com
symmetry c1
}

set {
basis        aug-cc-pVTZ
scf_type     df
}

energy("mp2")
