MEMORY 60 GB

molecule dimer {
0 1
Gh(Li)     0.000000     0.000000     0.000000
Gh(O)      1.865459    -0.354169     0.201545
Gh(H)      2.093877    -0.548368     1.130116
Gh(H)      2.178545    -1.139580    -0.260272
O          0.175866     1.813815     0.284345
H         -0.515507     2.243153     0.826268
H          0.889311     1.834078     0.952204
Gh(O)     -0.923465    -0.274645    -1.649009
Gh(H)     -0.830755     0.486977    -2.218102
Gh(H)     -1.826401    -0.476768    -1.767965
Gh(O)     -1.217772    -1.202794     1.092934
Gh(H)     -1.879809    -1.607959     0.562364
Gh(H)     -1.655044    -0.939992     1.956239

units ang
no_reorient
no_com
symmetry c1
}

set {
basis        aug-cc-pVTZ
scf_type     df
}

energy("mp2")
