MEMORY 60 GB

molecule dimer {
1 1
Li         0.000000     0.000000     0.000000
O         -1.513363     0.722143    -0.727441
H         -2.027594     0.178981    -1.343150
H         -1.819754     1.661892    -0.823652
O         -0.252767    -2.026350    -0.783049
H          0.479598    -2.628908    -0.595592
H         -1.049144    -2.293358    -0.295986
O          0.516511     0.763586     1.671608
H          0.437421     1.575636     1.228955
H         -0.235072     0.629634     2.234292
O          1.457213     0.460443    -1.122910
H          1.677956    -0.213540    -1.788812
H          2.254305     0.527812    -0.514055

units ang
no_reorient
no_com
symmetry c1
}

set {
basis        aug-cc-pVTZ
scf_type     df
}

energy("mp2")
