MEMORY 60 GB

molecule dimer {
0 1
Gh(Li)     0.000000     0.000000     0.000000
Gh(O)     -1.250276    -0.767961    -1.527750
Gh(H)     -0.774486    -1.486835    -1.895383
Gh(H)     -2.179176    -0.820415    -1.767325
O         -1.166798    -0.535753     1.661617
H         -0.741108    -0.764670     2.507558
H         -1.879153    -1.203534     1.673004
Gh(O)      0.410563     1.717860     0.405025
Gh(H)      0.955455     1.673867     1.174611
Gh(H)      1.000185     2.068463    -0.282656
Gh(O)      1.643875    -1.072325    -0.704594
Gh(H)      1.714216    -1.974251    -0.225525
Gh(H)      2.114756    -1.224097    -1.564307

units ang
no_reorient
no_com
symmetry c1
}

set {
basis        aug-cc-pVTZ
scf_type     df
}

energy("mp2")
