MEMORY 60 GB

molecule dimer {
1 1
Li     0.000000     0.000000     0.000000
--
0 1
O      1.401258    -0.552767    -1.148847
H      2.222717    -0.099344    -1.190559
H      1.562451    -1.490832    -1.304563
O     -0.330704     1.780111     0.510752
H     -0.929458     1.795993     1.257868
H     -0.397182     2.647959     0.120718
O      0.494746    -0.773349     1.790483
H      1.287530    -0.312464     2.047423
H     -0.132202    -0.417194     2.419929
O     -1.664275    -0.879300    -0.710838
H     -2.365985    -1.429029    -0.223341
H     -2.197362    -0.354210    -1.323729

units ang
no_reorient
no_com
symmetry c1
}

set {
basis        aug-cc-pVTZ
scf_type     df
}

energy("mp2", bsse_type="cp")
