MEMORY 60 GB

molecule dimer {
1 1
Li     0.000000     0.000000     0.000000
--
0 1
O      1.852804     0.610325     0.422366
H      2.273260     1.457225     0.600686
H      2.485926     0.051439    -0.025591
O     -1.159180     1.378186     0.408450
H     -1.049995     1.647269     1.320449
H     -1.096509     2.226849    -0.094508
O     -0.329423    -1.475069     1.145804
H     -0.434844    -2.362818     0.770701
H     -1.017858    -1.314900     1.802054
O      0.503397    -1.152424    -1.784085
H      0.322310    -0.760718    -2.631013
H      1.362436    -1.632825    -1.984484

units ang
no_reorient
no_com
symmetry c1
}

set {
basis        aug-cc-pVTZ
scf_type     df
}

energy("mp2", bsse_type="cp")
