MEMORY 60 GB

molecule dimer {
0 1
Gh(Li)     0.000000     0.000000     0.000000
O          0.814019    -1.627178    -0.750547
H          0.515286    -1.888018    -1.619965
H          1.776685    -1.477163    -0.804751
Gh(O)     -1.975126    -0.101471     0.138953
Gh(H)     -2.662290     0.539971     0.324561
Gh(H)     -2.473143    -0.849112    -0.390923
Gh(O)      0.507752     1.359512    -1.147321
Gh(H)      1.373943     1.714330    -1.381481
Gh(H)      0.123691     1.025614    -1.939705
Gh(O)      0.223291    -0.134039     1.993173
Gh(H)      1.169830    -0.151311     2.130046
Gh(H)      0.009339     0.679243     2.474654

units ang
no_reorient
no_com
symmetry c1
}

set {
basis        aug-cc-pVTZ
scf_type     df
}

energy("mp2")
