MEMORY 60 GB

molecule dimer {
0 1
Gh(Li)     0.000000     0.000000     0.000000
Gh(O)     -1.599702    -0.834408    -0.032075
Gh(H)     -1.671490    -1.753336     0.164015
Gh(H)     -2.104307    -0.340925     0.605746
Gh(O)      0.005994     1.410873     1.210917
Gh(H)     -0.817348     1.609443     0.914181
Gh(H)     -0.067656     1.285409     2.156336
O          0.490183     0.722640    -1.670961
H          0.003584     0.447548    -2.436389
H          1.403239     0.553948    -1.838663

units ang
no_reorient
no_com
symmetry c1
}

set {
basis        aug-cc-pVTZ
scf_type     df
}

energy("mp2")
