MEMORY 60 GB

molecule dimer {
1 1
Li         0.000000     0.000000     0.000000
O          1.871880     0.461571     0.368550
H          2.285974     0.571186    -0.568959
H          2.640293     0.187905     0.999170
O         -0.434010     0.027323    -1.814838
H         -1.386091     0.043525    -1.966203
H         -0.179400     0.553937    -2.571507
O         -0.248199    -1.804611     0.671574
H          0.614937    -2.214034     0.676546
H         -0.801980    -2.158788    -0.016634
O         -1.170794     0.970161     1.468626
H         -0.562692     1.300187     2.160833
H         -1.660722     0.184687     1.808510

units ang
no_reorient
no_com
symmetry c1
}

set {
basis        aug-cc-pVTZ
scf_type     df
}

energy("mp2")
