MEMORY 60 GB

molecule dimer {
1 1
Li         0.000000     0.000000     0.000000
O         -0.027221    -1.892341     0.156225
H         -0.536148    -2.498417    -0.392860
H          0.243138    -2.471152     0.849494
O          1.738236     0.664366    -0.057323
H          2.287094     0.955382     0.777655
H          2.400736     0.107677    -0.493532
O         -1.127047     0.764844     1.621688
H         -0.642547     0.688602     2.513507
H         -1.362795     1.713494     1.543215
O         -0.863269     0.264781    -1.728839
H         -0.881962     1.221250    -1.792891
H         -1.763154    -0.020104    -1.961724

units ang
no_reorient
no_com
symmetry c1
}

set {
basis        aug-cc-pVTZ
scf_type     df
}

energy("mp2")
