MEMORY 60 GB

molecule dimer {
1 1
Li         0.000000     0.000000     0.000000
Gh(O)      0.181903     1.777450    -0.729930
Gh(H)      0.593085     1.934525    -1.596672
Gh(H)      0.280321     2.525539    -0.178489
Gh(O)     -1.196907    -1.054425    -1.199409
Gh(H)     -2.179947    -1.140973    -1.113703
Gh(H)     -0.981597    -0.750434    -2.076686
Gh(O)      1.630893    -0.829171     0.343299
Gh(H)      1.796402    -1.357139     1.140948
Gh(H)      2.284558    -1.180292    -0.243308

units ang
no_reorient
no_com
symmetry c1
}

set {
basis        aug-cc-pVTZ
scf_type     df
}

energy("mp2")
