MEMORY 60 GB

molecule dimer {
0 1
Gh(Li)     0.000000     0.000000     0.000000
Gh(O)      0.417117    -1.590090    -0.715265
Gh(H)      0.113479    -1.780133    -1.561165
Gh(H)     -0.072674    -2.333038    -0.261775
O         -0.978605     0.856936    -1.604785
H         -0.831895     0.649771    -2.541595
H         -1.405275     1.676017    -1.545406
Gh(O)      1.758787     1.151787     0.325826
Gh(H)      1.656124     1.242794     1.331459
Gh(H)      2.733052     0.921730     0.180866
Gh(O)     -0.660341    -0.397747     1.752656
Gh(H)     -1.486978    -0.023294     2.186827
Gh(H)     -0.498526    -1.285573     1.955375

units ang
no_reorient
no_com
symmetry c1
}

set {
basis        aug-cc-pVTZ
scf_type     df
}

energy("mp2")
