MEMORY 60 GB

molecule dimer {
0 1
Gh(Li)     0.000000     0.000000     0.000000
Gh(O)     -1.959429     0.551722    -0.115906
Gh(H)     -2.501903     1.114878     0.470899
Gh(H)     -2.703678     0.065273    -0.568937
O          0.234542    -1.408943     1.091451
H         -0.520325    -2.028104     0.922529
H          0.330550    -1.475194     2.088232
Gh(O)      0.911987     1.610117     0.968941
Gh(H)      1.448281     1.554265     1.803833
Gh(H)      1.223738     2.292862     0.375246
Gh(O)      0.842688     0.233769    -1.798413
Gh(H)      0.637542    -0.124408    -2.680969
Gh(H)      1.557305     0.923962    -1.781956

units ang
no_reorient
no_com
symmetry c1
}

set {
basis        aug-cc-pVTZ
scf_type     df
}

energy("mp2")
