MEMORY 60 GB

molecule dimer {
0 1
Gh(Li)     0.000000     0.000000     0.000000
O          1.133636     1.160128     1.243272
H          1.434853     0.831187     2.107622
H          1.945824     1.527758     0.841027
Gh(O)     -0.306541     1.258901    -1.187418
Gh(H)      0.454497     1.234098    -1.696850
Gh(H)     -0.979760     1.240604    -1.874525
Gh(O)      1.574698    -0.881807    -0.658457
Gh(H)      1.954431    -1.193772    -1.507817
Gh(H)      2.305375    -0.692560    -0.134613
Gh(O)     -1.760856    -0.323595     1.014546
Gh(H)     -1.586028    -0.713078     1.866818
Gh(H)     -2.486655    -0.870309     0.629301

units ang
no_reorient
no_com
symmetry c1
}

set {
basis        aug-cc-pVTZ
scf_type     df
}

energy("mp2")
