MEMORY 60 GB

molecule dimer {
1 1
Li     0.000000     0.000000     0.000000
--
0 1
O     -1.511539    -0.373056     1.444335
H     -2.171177    -0.773198     0.881789
H     -1.822922     0.301399     2.156054
O      1.489676     0.881894     1.248380
H      2.269207     0.733811     0.702855
H      1.792827     0.767859     2.219903
O     -1.062894     1.282392    -0.795663
H     -1.976557     1.447197    -0.506702
H     -1.068516     1.674872    -1.716630
O      0.712000    -1.014444    -1.465121
H      0.958402    -1.983537    -1.419085
H      0.828894    -0.834982    -2.421806

units ang
no_reorient
no_com
symmetry c1
}

set {
basis        aug-cc-pVTZ
scf_type     df
}

energy("mp2", bsse_type="cp")
