MEMORY 60 GB

molecule dimer {
1 1
Li         0.000000     0.000000     0.000000
Gh(O)     -1.498553    -0.172311    -1.210425
Gh(H)     -2.174307     0.521597    -1.476675
Gh(H)     -1.991752    -1.002923    -1.332405
Gh(O)     -0.367263     1.242081     1.322828
Gh(H)     -0.175908     2.107081     0.882067
Gh(H)     -0.029996     1.416719     2.241664
Gh(O)      0.117002    -1.599248     1.214210
Gh(H)     -0.543417    -1.979387     1.825647
Gh(H)      0.867799    -2.228187     1.292257

units ang
no_reorient
no_com
symmetry c1
}

set {
basis        aug-cc-pVTZ
scf_type     df
}

energy("mp2")
