MEMORY 60 GB

molecule dimer {
0 1
Gh(Li)     0.000000     0.000000     0.000000
O          1.110215    -1.098530    -1.443038
H          1.598295    -1.954221    -1.278074
H          1.207274    -0.949489    -2.430059
Gh(O)     -1.257824    -1.305400     0.453129
Gh(H)     -2.221511    -1.279369     0.433411
Gh(H)     -1.048101    -1.335662     1.390767
Gh(O)     -0.051878     1.572965     1.008421
Gh(H)      0.239274     2.445122     1.163302
Gh(H)     -0.498900     1.346008     1.847540

units ang
no_reorient
no_com
symmetry c1
}

set {
basis        aug-cc-pVTZ
scf_type     df
}

energy("mp2")
