MEMORY 60 GB

molecule dimer {
1 1
Li         0.000000     0.000000     0.000000
O          1.698581     0.435696     0.558593
H          2.237527    -0.300337     0.974783
H          2.088861     0.477432    -0.359968
O         -0.602134     1.603987    -1.055512
H         -0.019972     1.873754    -1.758661
H         -1.470926     1.622158    -1.464541
O          0.090460    -1.221032    -1.273457
H          0.943707    -1.644678    -1.158743
H         -0.580198    -1.847887    -1.056551
O         -1.504258    -0.347888     1.383059
H         -1.261637    -0.488613     2.322452
H         -1.997552    -1.132669     1.067802

units ang
no_reorient
no_com
symmetry c1
}

set {
basis        aug-cc-pVTZ
scf_type     df
}

energy("mp2")
