MEMORY 60 GB

molecule dimer {
1 1
Li         0.000000     0.000000     0.000000
Gh(O)     -0.207258     1.893567    -0.189270
Gh(H)     -1.121865     2.058966     0.128404
Gh(H)     -0.276352     2.100735    -1.147691
Gh(O)     -0.450346    -0.540463     1.792528
Gh(H)     -1.197754    -1.034385     1.966029
Gh(H)     -0.329736    -0.092928     2.623816
Gh(O)      1.811809    -0.507348    -0.752479
Gh(H)      2.033480    -0.946021     0.085056
Gh(H)      1.816157    -1.201410    -1.392174
Gh(O)     -1.390009    -0.914970    -1.164105
Gh(H)     -2.030872    -0.570429    -0.544099
Gh(H)     -1.574691    -1.795563    -1.145738

units ang
no_reorient
no_com
symmetry c1
}

set {
basis        aug-cc-pVTZ
scf_type     df
}

energy("mp2")
