MEMORY 60 GB

molecule dimer {
0 1
Gh(Li)     0.000000     0.000000     0.000000
Gh(O)      1.718350     0.176551     0.544897
Gh(H)      2.140398     0.825322    -0.025747
Gh(H)      1.574066     0.694093     1.420858
O         -0.618594     1.178660    -1.431382
H         -1.462932     1.491536    -1.765382
H         -0.007693     1.643578    -2.053149
Gh(O)     -0.276860    -1.382086    -1.514478
Gh(H)     -0.026138    -2.301828    -1.619613
Gh(H)     -0.080953    -0.943301    -2.378795
Gh(O)     -1.025451    -0.316730     1.697479
Gh(H)     -1.827661    -0.788100     1.402480
Gh(H)     -0.931749    -0.447840     2.626507

units ang
no_reorient
no_com
symmetry c1
}

set {
basis        aug-cc-pVTZ
scf_type     df
}

energy("mp2")
