MEMORY 60 GB

molecule dimer {
1 1
Li     0.000000     0.000000     0.000000
--
0 1
O      1.466760     0.450408    -1.235185
H      2.148328     1.001972    -0.849832
H      1.104955     0.850723    -2.035762
O     -0.000372    -1.923700     0.069063
H     -0.093103    -2.125757    -0.874898
H     -0.820918    -2.233311     0.458196
O     -2.075430     0.042768    -0.218320
H     -2.709974    -0.583971    -0.554856
H     -2.436149     0.294869     0.600464
O      0.553120     0.728764     1.842899
H      1.471289     1.060141     1.753587
H      0.252809     1.353718     2.508178

units ang
no_reorient
no_com
symmetry c1
}

set {
basis        aug-cc-pVTZ
scf_type     df
}

energy("mp2", bsse_type="cp")
