MEMORY 60 GB

molecule dimer {
0 1
Gh(Li)     0.000000     0.000000     0.000000
O         -0.726839    -0.118102     1.911175
H         -0.115967    -0.212325     2.688357
H         -1.622471    -0.399297     2.175709
Gh(O)      0.992835     1.593091     0.218464
Gh(H)      0.702150     2.401769     0.685617
Gh(H)      1.134015     1.873018    -0.713415
Gh(O)      0.978893    -1.627265    -0.419354
Gh(H)      0.322428    -2.297315    -0.615808
Gh(H)      1.423814    -1.960308     0.436537
Gh(O)     -1.645151    -0.250685    -1.119639
Gh(H)     -1.834142     0.556153    -1.664355
Gh(H)     -2.442203    -0.433569    -0.617930

units ang
no_reorient
no_com
symmetry c1
}

set {
basis        aug-cc-pVTZ
scf_type     df
}

energy("mp2")
