MEMORY 60 GB

molecule dimer {
0 1
Gh(Li)     0.000000     0.000000     0.000000
Gh(O)     -0.960185    -1.720806     0.734715
Gh(H)     -1.609753    -1.980636     0.053101
Gh(H)     -1.464227    -1.639800     1.581140
Gh(O)     -0.437682     0.868054     1.944262
Gh(H)      0.112980     1.630091     1.719873
Gh(H)      0.152970     0.176865     2.309788
Gh(O)     -1.028560     1.162893    -1.082054
Gh(H)     -1.748052     1.570993    -0.564156
Gh(H)     -1.147301     1.431115    -1.976130
O          1.527560    -0.693332    -0.338641
H          1.804729    -1.158174    -1.131997
H          2.284838    -0.148433    -0.221551

units ang
no_reorient
no_com
symmetry c1
}

set {
basis        aug-cc-pVTZ
scf_type     df
}

energy("mp2")
