MEMORY 60 GB

molecule dimer {
1 1
Li         0.000000     0.000000     0.000000
O         -0.156941     0.958467     1.896046
H         -1.044531     1.337985     1.806280
H          0.472478     1.694438     2.070088
O          1.878977    -0.036473    -0.312733
H          2.472733     0.679982    -0.021938
H          2.035110    -0.049355    -1.243801
O         -0.712229     1.599462    -0.924556
H         -0.973922     2.332904    -0.344616
H         -1.404245     1.668289    -1.576126
O         -0.193645    -1.095916    -1.492069
H         -1.073154    -1.433089    -1.520338
H          0.383632    -1.886412    -1.626908

units ang
no_reorient
no_com
symmetry c1
}

set {
basis        aug-cc-pVTZ
scf_type     df
}

energy("mp2")
