MEMORY 60 GB

molecule dimer {
0 1
Gh(Li)     0.000000     0.000000     0.000000
Gh(O)     -1.493181     0.812463    -0.760642
Gh(H)     -2.274485     0.118561    -0.860742
Gh(H)     -1.946136     1.446441    -0.200871
O         -0.238550    -1.490324     0.929417
H         -0.382439    -2.409755     0.616696
H         -0.583433    -1.630923     1.807732
Gh(O)      0.483877     1.296141     1.431392
Gh(H)      0.764361     0.733210     2.208636
Gh(H)     -0.078353     2.024658     1.715524
Gh(O)      1.736640    -0.390823    -1.112667
Gh(H)      1.820394    -1.119034    -1.789990
Gh(H)      2.001306     0.393263    -1.580594

units ang
no_reorient
no_com
symmetry c1
}

set {
basis        aug-cc-pVTZ
scf_type     df
}

energy("mp2")
