MEMORY 60 GB

molecule dimer {
1 1
Li     0.000000     0.000000     0.000000
--
0 1
O      0.390042    -1.160616     1.490585
H     -0.243993    -1.161479     2.265530
H      1.258902    -1.475505     1.814142
O      0.714006    -0.621924    -1.675532
H      0.563089    -1.496172    -2.023043
H      1.634528    -0.693713    -1.380365
O      0.007185     1.610878     0.603106
H      0.504155     1.802163     1.444361
H      0.266326     2.363747     0.036021
O     -2.100619    -0.120590     0.246977
H     -2.225502     0.165368     1.190818
H     -2.740583    -0.897791     0.115905

units ang
no_reorient
no_com
symmetry c1
}

set {
basis        aug-cc-pVTZ
scf_type     df
}

energy("mp2", bsse_type="cp")
