MEMORY 60 GB

molecule dimer {
1 1
Li     0.000000     0.000000     0.000000
--
0 1
O      1.276765     0.545153     1.397121
H      1.439625    -0.293000     1.863141
H      1.756552     1.287598     1.849105
O      0.409922     1.229791    -1.545668
H      1.146667     1.129525    -2.203588
H     -0.234316     1.541034    -2.202116
O     -1.716144     0.282187     0.825118
H     -2.643062     0.455413     0.501701
H     -1.848891    -0.348811     1.525324
O      0.520377    -1.745389    -0.656277
H     -0.250082    -2.060907    -1.141392
H      0.808173    -2.502960    -0.080864

units ang
no_reorient
no_com
symmetry c1
}

set {
basis        aug-cc-pVTZ
scf_type     df
}

energy("mp2", bsse_type="cp")
