MEMORY 60 GB

molecule dimer {
0 1
Gh(Li)     0.000000     0.000000     0.000000
O          1.208138    -1.483905    -0.054330
H          1.706083    -1.757206     0.774298
H          1.774244    -1.511918    -0.824749
Gh(O)      0.360921     0.615778     1.634830
Gh(H)      1.202116     0.241370     2.076436
Gh(H)      0.323012     1.571300     1.866216
Gh(O)      0.388360     1.633741    -1.150752
Gh(H)      0.616019     1.302636    -2.021055
Gh(H)      1.215882     1.819896    -0.713647
Gh(O)     -1.776461    -0.480367    -0.202286
Gh(H)     -2.398739    -0.310590     0.568127
Gh(H)     -1.994482    -1.342837    -0.497433

units ang
no_reorient
no_com
symmetry c1
}

set {
basis        aug-cc-pVTZ
scf_type     df
}

energy("mp2")
