MEMORY 60 GB

molecule dimer {
1 1
Li         0.000000     0.000000     0.000000
Gh(O)      1.062713     1.375749    -0.711183
Gh(H)      1.377317     2.084377    -0.192248
Gh(H)      1.714223     1.224250    -1.484560
Gh(O)      0.041409    -1.808033    -0.905068
Gh(H)     -0.852499    -2.198037    -1.105551
Gh(H)      0.420454    -2.347752    -0.193979
Gh(O)     -1.559472     0.921783     0.230278
Gh(H)     -1.884578     1.208158    -0.631528
Gh(H)     -2.246300     0.361082     0.596645
Gh(O)      0.774279    -0.126335     1.869200
Gh(H)      0.785258     0.524247     2.549420
Gh(H)      0.581091    -0.983439     2.283012

units ang
no_reorient
no_com
symmetry c1
}

set {
basis        aug-cc-pVTZ
scf_type     df
}

energy("mp2")
