MEMORY 60 GB

molecule dimer {
0 1
Gh(Na)     0.000000     0.000000     0.000000
Gh(O)     -1.748724     1.414062     0.874886
Gh(H)     -1.689945     2.308594     0.549541
Gh(H)     -2.361366     1.350837     1.632814
Gh(O)      0.302414     0.965556    -2.034213
Gh(H)     -0.601270     1.062348    -2.426937
Gh(H)      0.779372     0.758555    -2.825749
O          1.437561    -1.515632     0.722924
H          2.205461    -0.891894     0.700578
H          1.302992    -1.600284     1.634306
Gh(O)      1.297210     1.818155     1.214323
Gh(H)      1.433743     2.095204     2.181625
Gh(H)      2.169762     1.506935     0.937370
Gh(O)     -1.726322    -1.655173    -0.241891
Gh(H)     -2.216976    -1.775963     0.645435
Gh(H)     -1.679070    -2.537642    -0.673875

units ang
no_reorient
no_com
symmetry c1
}

set {
basis        aug-cc-pVTZ
scf_type     df
}

energy("mp2")
