MEMORY 60 GB

molecule dimer {
1 1
Na     0.000000     0.000000     0.000000
--
0 1
O      0.455401     1.725871    -1.530100
H      0.381599     2.703129    -1.701900
H      1.168828     1.383847    -1.972639
O      0.099395    -1.245093    -1.972522
H     -0.525908    -1.852204    -2.373265
H      0.897570    -1.353097    -2.425965
O     -0.577192    -2.096889     1.451220
H     -0.502479    -1.745663     2.351427
H     -0.878722    -2.990788     1.553783
O     -1.109273     1.078842     1.946875
H     -1.010859     0.585553     2.773577
H     -1.699356     1.860468     2.119333
O      2.116279     0.093364     1.509554
H      2.034470     0.874012     2.152355
H      2.186417    -0.715612     2.045233

units ang
no_reorient
no_com
symmetry c1
}

set {
basis        aug-cc-pVTZ
scf_type     df
}

energy("mp2", bsse_type="cp")
