MEMORY 60 GB

molecule dimer {
0 1
Gh(Na)     0.000000     0.000000     0.000000
Gh(O)      1.404702    -0.485518    -1.896445
Gh(H)      1.038745    -1.321937    -2.102680
Gh(H)      1.307717     0.036148    -2.685769
O         -1.779006    -0.081116    -1.451137
H         -1.861816     0.166913    -2.371670
H         -2.628732     0.137084    -0.991427
Gh(O)     -0.705629    -1.885287     0.969773
Gh(H)     -1.640917    -1.977294     0.921356
Gh(H)     -0.341296    -2.802783     1.169197
Gh(O)     -0.020124     2.263140    -0.701517
Gh(H)      0.750889     2.324265    -1.265418
Gh(H)     -0.815691     2.319251    -1.249151

units ang
no_reorient
no_com
symmetry c1
}

set {
basis        aug-cc-pVTZ
scf_type     df
}

energy("mp2")
