MEMORY 60 GB

molecule dimer {
0 1
Gh(Na)     0.000000     0.000000     0.000000
Gh(O)      1.295992    -1.038055    -1.666929
Gh(H)      1.199472    -0.914486    -2.588127
Gh(H)      2.215709    -0.827473    -1.487559
Gh(O)      0.945093    -1.880558     0.968601
Gh(H)      1.449261    -2.195584     0.246835
Gh(H)      0.398653    -2.523314     1.421842
O         -1.899954     0.291284     1.327143
H         -1.989905     1.254936     1.673416
H         -1.881234    -0.239655     2.109490
Gh(O)      2.210054     0.959882     0.855124
Gh(H)      2.866527     0.324916     0.526095
Gh(H)      2.208158     0.741535     1.764241
Gh(O)     -1.049559     1.773634    -1.401658
Gh(H)     -0.352216     2.144695    -1.977073
Gh(H)     -1.638655     1.166318    -1.764810

units ang
no_reorient
no_com
symmetry c1
}

set {
basis        aug-cc-pVTZ
scf_type     df
}

energy("mp2")
