MEMORY 60 GB

molecule dimer {
1 1
Na         0.000000     0.000000     0.000000
O         -1.395183     1.416531     1.115880
H         -1.935421     2.181378     0.930318
H         -0.776281     1.627815     1.829800
O         -1.644028    -1.867254    -0.467300
H         -1.184540    -2.597510    -0.013234
H         -1.955768    -2.260579    -1.228122
O          1.995929     1.382494     0.461430
H          2.261805     2.279725     0.187226
H          2.772848     0.877410     0.253783
O          0.711563    -1.241514     1.652283
H          0.535075    -1.057522     2.588328
H          1.001081    -2.145098     1.605558

units ang
no_reorient
no_com
symmetry c1
}

set {
basis        aug-cc-pVTZ
scf_type     df
}

energy("mp2")
