MEMORY 60 GB

molecule dimer {
0 1
Gh(Na)     0.000000     0.000000     0.000000
Gh(O)     -1.453265    -0.927157     1.825285
Gh(H)     -2.100322    -0.255926     1.972817
Gh(H)     -1.935961    -1.746795     1.593913
O          0.533351     1.207339     2.078428
H          0.369434     2.123890     2.057849
H          1.328925     0.987573     2.532613
Gh(O)      1.651761    -1.445261     0.090473
Gh(H)      2.214791    -1.702771     0.905964
Gh(H)      1.533721    -2.215695    -0.565653
Gh(O)     -2.231746     0.829196    -0.427680
Gh(H)     -2.770376     0.788932    -1.214090
Gh(H)     -2.790229     0.419292     0.320234
Gh(O)      0.777575     1.636496    -1.467094
Gh(H)      0.243066     2.358069    -1.870836
Gh(H)      1.727867     1.770498    -1.676592

units ang
no_reorient
no_com
symmetry c1
}

set {
basis        aug-cc-pVTZ
scf_type     df
}

energy("mp2")
