MEMORY 60 GB

molecule dimer {
0 1
Gh(Na)     0.000000     0.000000     0.000000
Gh(O)      1.334000    -1.849241     0.833682
Gh(H)      0.843314    -2.454108     0.292436
Gh(H)      1.075079    -1.910830     1.778471
Gh(O)      0.600992     2.170522     0.487660
Gh(H)      0.984422     2.164393     1.361891
Gh(H)     -0.125654     2.794966     0.541435
Gh(O)     -0.992808     0.222812     2.227261
Gh(H)     -1.843637     0.610825     2.337129
Gh(H)     -0.512337     0.213665     3.094299
O         -0.600025    -1.874107    -1.325344
H         -0.153155    -2.069651    -2.176957
H         -1.332728    -2.491016    -1.134304
Gh(O)     -2.219894     1.097809    -0.293701
Gh(H)     -2.721279     0.507752    -0.888427
Gh(H)     -2.724866     1.291058     0.464875

units ang
no_reorient
no_com
symmetry c1
}

set {
basis        aug-cc-pVTZ
scf_type     df
}

energy("mp2")
