MEMORY 60 GB

molecule dimer {
1 1
Na     0.000000     0.000000     0.000000
--
0 1
O     -2.267046    -0.058444    -0.576173
H     -2.957507     0.583536    -0.703646
H     -2.245748    -0.641405    -1.346391
O      2.020528    -0.856869     0.738830
H      2.866660    -0.369129     0.689068
H      2.097887    -1.320091     1.596498
O      0.786320    -0.955734    -2.146642
H      0.999726    -1.902132    -2.090619
H      0.456867    -0.843797    -3.039678
O     -0.382137    -2.373173     0.216705
H      0.026752    -3.262338     0.298848
H     -1.300501    -2.497887     0.385697
O     -0.519840     0.317423     2.277683
H      0.259638     0.493602     2.844944
H     -0.969288    -0.486423     2.544550

units ang
no_reorient
no_com
symmetry c1
}

set {
basis        aug-cc-pVTZ
scf_type     df
}

energy("mp2", bsse_type="cp")
