MEMORY 60 GB

molecule dimer {
0 1
Gh(Na)     0.000000     0.000000     0.000000
O         -1.599330     1.629936    -0.826504
H         -2.060317     0.981063    -1.364915
H         -1.486177     2.393893    -1.396625
Gh(O)     -0.042840    -0.395400    -2.442957
Gh(H)      0.550503     0.190653    -2.874800
Gh(H)     -0.913132    -0.259864    -2.869914
Gh(O)     -0.515091    -0.239782     2.281892
Gh(H)     -1.087173    -1.040340     2.258925
Gh(H)     -0.899990     0.406767     2.844373
Gh(O)      1.517695     1.592560     0.966864
Gh(H)      2.451653     1.871029     1.146830
Gh(H)      0.876999     1.867977     1.656428

units ang
no_reorient
no_com
symmetry c1
}

set {
basis        aug-cc-pVTZ
scf_type     df
}

energy("mp2")
