MEMORY 60 GB

molecule dimer {
0 1
Gh(Na)     0.000000     0.000000     0.000000
Gh(O)     -1.169214     0.675061    -1.965345
Gh(H)     -1.806908    -0.031789    -2.222785
Gh(H)     -1.605764     1.457733    -2.244370
Gh(O)     -0.030340    -2.107786    -1.084587
Gh(H)      0.207561    -2.894411    -0.558114
Gh(H)      0.618974    -2.140900    -1.742073
Gh(O)      0.692412     0.310337     2.464985
Gh(H)     -0.299640     0.237282     2.718297
Gh(H)      1.167970    -0.408106     2.881909
Gh(O)     -2.120624    -0.497677     1.271846
Gh(H)     -2.415073     0.222634     1.817307
Gh(H)     -2.903605    -0.836519     0.750395
Gh(O)      0.425403     2.480866     0.024064
Gh(H)      0.339669     3.168213     0.657297
Gh(H)     -0.465816     2.494236    -0.380434
O          2.583179    -0.496408    -0.190695
H          2.787887    -0.734051    -1.155683
H          2.934192     0.414483    -0.062159

units ang
no_reorient
no_com
symmetry c1
}

set {
basis        aug-cc-pVTZ
scf_type     df
}

energy("mp2")
