MEMORY 60 GB

molecule dimer {
1 1
Na     0.000000     0.000000     0.000000
--
0 1
O     -0.193331     2.133012     0.051126
H      0.653992     2.486181    -0.227094
H     -0.472516     2.846712     0.650011
O      0.288803    -2.322357    -0.174914
H     -0.642727    -2.354494    -0.182470
H      0.543217    -2.550000    -1.066325
O     -0.773660    -0.489796     2.272680
H     -0.543862     0.115681     2.979151
H     -0.362466    -1.237847     2.655977
O     -1.896119    -0.066378    -1.470424
H     -2.170950     0.762265    -1.877462
H     -2.621122    -0.681651    -1.551543
O      1.464272     0.251391    -1.866281
H      2.258159     0.208517    -1.354089
H      1.592895    -0.381460    -2.532995

units ang
no_reorient
no_com
symmetry c1
}

set {
basis        aug-cc-pVTZ
scf_type     df
}

energy("mp2", bsse_type="cp")
