MEMORY 60 GB

molecule dimer {
0 1
Gh(Na)     0.000000     0.000000     0.000000
Gh(O)     -1.724880    -1.271601     1.213900
Gh(H)     -2.325128    -0.571095     1.379831
Gh(H)     -2.168723    -1.746989     0.502293
Gh(O)     -0.039054    -1.936295    -1.391128
Gh(H)      0.391505    -2.720753    -1.100880
Gh(H)      0.371378    -1.668308    -2.222008
O         -1.221731     2.060268    -0.618102
H         -2.197672     1.923654    -0.578974
H         -1.034113     2.478922     0.254269
Gh(O)      2.170696    -1.419467     0.263194
Gh(H)      2.386052    -0.539926    -0.129718
Gh(H)      2.614810    -1.412889     1.118737
Gh(O)      1.577504     0.614945    -1.358706
Gh(H)      1.342517     0.541305    -2.293175
Gh(H)      1.634371     1.604489    -1.284154
Gh(O)      0.804081     0.832483     2.115286
Gh(H)      0.484562     0.652400     2.977864
Gh(H)      1.717967     0.859279     2.323688

units ang
no_reorient
no_com
symmetry c1
}

set {
basis        aug-cc-pVTZ
scf_type     df
}

energy("mp2")
