MEMORY 60 GB

molecule dimer {
0 1
Gh(Na)     0.000000     0.000000     0.000000
Gh(O)     -1.982434     0.371909     1.103721
Gh(H)     -1.999968    -0.133509     1.915544
Gh(H)     -2.677161    -0.029523     0.520499
Gh(O)     -0.506861     1.576105    -1.534582
Gh(H)     -1.312414     2.123471    -1.457035
Gh(H)      0.255777     2.156557    -1.829559
Gh(O)      1.680895    -0.267523    -1.814314
Gh(H)      1.826160     0.587119    -2.126473
Gh(H)      2.577908    -0.601219    -1.659205
O          1.269075    -0.963815     1.515438
H          1.588209    -1.762903     1.072335
H          1.939449    -0.207875     1.425336

units ang
no_reorient
no_com
symmetry c1
}

set {
basis        aug-cc-pVTZ
scf_type     df
}

energy("mp2")
