MEMORY 60 GB

molecule dimer {
0 1
Gh(Na)     0.000000     0.000000     0.000000
Gh(O)     -2.261961     1.217191     0.375676
Gh(H)     -2.319771     0.725206     1.230404
Gh(H)     -2.115469     2.079564     0.782307
Gh(O)      0.486184     1.167985    -1.873883
Gh(H)      1.475220     1.083745    -1.817610
Gh(H)      0.344352     2.132995    -1.761720
Gh(O)      0.722217     0.847010     2.215250
Gh(H)      1.295874     1.594855     2.044533
Gh(H)      1.115391     0.266313     2.859288
Gh(O)      2.364881    -0.815744    -0.208489
Gh(H)      2.395551    -1.654726     0.299478
Gh(H)      2.540953    -0.931226    -1.162329
O         -1.292387    -1.428775     1.297161
H         -1.008717    -1.931975     2.092847
H         -1.907300    -1.938032     0.765697

units ang
no_reorient
no_com
symmetry c1
}

set {
basis        aug-cc-pVTZ
scf_type     df
}

energy("mp2")
