MEMORY 60 GB

molecule dimer {
0 1
Gh(Na)     0.000000     0.000000     0.000000
Gh(O)      0.056153    -1.593017    -1.588907
Gh(H)     -0.422819    -1.289136    -2.393865
Gh(H)     -0.138369    -2.503753    -1.378373
Gh(O)      1.408983    -1.281787     1.277252
Gh(H)      0.964298    -1.922010     1.792464
Gh(H)      1.991702    -0.868205     1.920136
O         -1.809137     1.083746    -1.258510
H         -1.679558     1.887221    -1.716686
H         -2.630287     1.152332    -0.772428
Gh(O)      1.718985     1.693094    -0.096897
Gh(H)      2.245607     1.434703     0.635177
Gh(H)      1.263609     2.472586     0.090106
Gh(O)     -1.030025     1.048290     2.059206
Gh(H)     -0.379602     1.376428     2.604273
Gh(H)     -1.526575     0.492561     2.662498

units ang
no_reorient
no_com
symmetry c1
}

set {
basis        aug-cc-pVTZ
scf_type     df
}

energy("mp2")
