MEMORY 60 GB

molecule dimer {
0 1
Gh(Na)     0.000000     0.000000     0.000000
O          1.661844     0.842701    -1.497041
H          2.528080     0.377121    -1.307093
H          1.848781     1.779490    -1.584275
Gh(O)     -0.087779     2.077226     1.056665
Gh(H)      0.723586     2.252445     1.568366
Gh(H)     -0.229253     2.684807     0.350873
Gh(O)     -0.986073    -2.138878    -0.877046
Gh(H)     -0.792585    -1.599887    -1.687093
Gh(H)     -0.537496    -2.949143    -1.090109
Gh(O)     -1.993529     0.705204    -1.045757
Gh(H)     -2.712929     0.142744    -1.464515
Gh(H)     -2.466013     1.376847    -0.624703
Gh(O)      2.026165    -1.165386     0.465272
Gh(H)      2.085392    -1.934949     1.021382
Gh(H)      2.008320    -1.517727    -0.446427

units ang
no_reorient
no_com
symmetry c1
}

set {
basis        aug-cc-pVTZ
scf_type     df
}

energy("mp2")
