MEMORY 60 GB

molecule dimer {
0 1
Gh(Na)     0.000000     0.000000     0.000000
Gh(O)      1.883305    -0.787728     1.103306
Gh(H)      1.885842    -1.374752     1.892927
Gh(H)      2.452066    -1.205300     0.437928
Gh(O)     -0.532091    -2.130325    -0.632144
Gh(H)     -0.199576    -2.040712    -1.524978
Gh(H)      0.239557    -2.564379    -0.117632
O         -2.191649     0.554956    -0.988319
H         -2.198458     1.493372    -1.035750
H         -3.034836     0.267373    -0.638305
Gh(O)      1.316751     0.763309    -1.800840
Gh(H)      0.984517     0.646102    -2.716363
Gh(H)      1.851374     1.546851    -1.595691

units ang
no_reorient
no_com
symmetry c1
}

set {
basis        aug-cc-pVTZ
scf_type     df
}

energy("mp2")
