MEMORY 60 GB

molecule dimer {
0 1
Gh(Na)     0.000000     0.000000     0.000000
O         -0.385609     0.971783     2.130412
H          0.171738     1.741781     2.032620
H          0.110888     0.513405     2.845892
Gh(O)      1.650679    -1.448679     0.973540
Gh(H)      2.407191    -1.477866     0.372562
Gh(H)      2.005735    -1.634422     1.882786
Gh(O)      1.370942     1.688736    -1.335288
Gh(H)      1.905338     1.353027    -2.042046
Gh(H)      2.089085     2.118485    -0.854267
Gh(O)     -0.901623    -0.275276    -2.159721
Gh(H)     -0.471246    -1.081532    -2.486808
Gh(H)     -0.652592     0.403088    -2.864428

units ang
no_reorient
no_com
symmetry c1
}

set {
basis        aug-cc-pVTZ
scf_type     df
}

energy("mp2")
