MEMORY 60 GB

molecule dimer {
0 1
Gh(Na)     0.000000     0.000000     0.000000
Gh(O)      0.696918    -1.921312     0.995276
Gh(H)      0.017441    -2.540067     1.231161
Gh(H)      1.089320    -1.653426     1.863350
Gh(O)     -0.113164     1.265055     1.982920
Gh(H)     -0.330778     2.212308     2.012355
Gh(H)      0.411205     1.113647     2.756034
O         -0.095172     2.270223    -1.051898
H          0.755125     2.726212    -0.865472
H         -0.442846     2.607254    -1.863955
Gh(O)     -0.540610    -1.206576    -2.092771
Gh(H)     -0.009866    -2.038275    -1.946300
Gh(H)     -1.328298    -1.540327    -2.427343

units ang
no_reorient
no_com
symmetry c1
}

set {
basis        aug-cc-pVTZ
scf_type     df
}

energy("mp2")
