MEMORY 60 GB

molecule dimer {
0 1
Gh(Na)     0.000000     0.000000     0.000000
Gh(O)      0.659986    -2.040507     0.606036
Gh(H)      0.158925    -2.823573     0.524427
Gh(H)      1.510866    -2.288362     0.337845
Gh(O)      2.115452     0.634802     0.818018
Gh(H)      2.351575     1.571131     0.886082
Gh(H)      2.064804     0.316408     1.680790
O         -2.136022     0.705726    -0.204914
H         -2.636726     0.821809    -1.022408
H         -2.660104     0.011381     0.299743

units ang
no_reorient
no_com
symmetry c1
}

set {
basis        aug-cc-pVTZ
scf_type     df
}

energy("mp2")
