MEMORY 60 GB

molecule dimer {
0 1
Gh(Na)     0.000000     0.000000     0.000000
Gh(O)      1.285259    -1.153262    -1.611448
Gh(H)      1.153437    -0.457589    -2.307772
Gh(H)      2.233554    -1.295964    -1.675455
Gh(O)      0.015079     2.249596    -1.029439
Gh(H)      0.758716     2.786048    -0.799301
Gh(H)     -0.644652     2.867532    -1.422312
Gh(O)      0.077834    -2.168857     1.191453
Gh(H)      0.847867    -2.443931     0.714386
Gh(H)     -0.420080    -2.971254     1.529163
Gh(O)      2.051840     0.606902     1.147426
Gh(H)      2.621342     1.274506     0.769810
Gh(H)      1.731269     1.021384     1.952136
O         -2.067947     0.408587     0.901339
H         -1.890616     1.227864     1.441286
H         -2.586505    -0.220929     1.396051

units ang
no_reorient
no_com
symmetry c1
}

set {
basis        aug-cc-pVTZ
scf_type     df
}

energy("mp2")
