MEMORY 60 GB

molecule dimer {
0 1
Gh(Na)     0.000000     0.000000     0.000000
Gh(O)      0.985243     1.361756    -1.542488
Gh(H)      1.874246     1.350733    -1.934909
Gh(H)      0.414988     1.260066    -2.324670
O          0.823978     0.878247     2.115655
H          1.298081     1.751934     2.375790
H          0.257828     0.586640     2.820213
Gh(O)     -0.226418    -1.408438    -1.797917
Gh(H)     -0.917865    -2.089083    -1.585986
Gh(H)      0.448556    -1.874981    -2.327105
Gh(O)     -1.974562     0.901395    -0.277079
Gh(H)     -2.014013     1.682929     0.320102
Gh(H)     -2.637138     0.327502     0.068322

units ang
no_reorient
no_com
symmetry c1
}

set {
basis        aug-cc-pVTZ
scf_type     df
}

energy("mp2")
