MEMORY 60 GB

molecule dimer {
1 1
Na         0.000000     0.000000     0.000000
O         -0.661700    -0.413389    -2.363281
H         -0.455933    -1.315712    -2.553822
H         -1.637257    -0.376380    -2.237891
O          0.544728    -1.118350     1.977274
H          0.744353    -0.833495     2.905568
H          1.400723    -1.370952     1.498188
O          1.757489    -1.534201    -0.881471
H          1.958724    -2.447531    -1.193130
H          2.491303    -0.876661    -1.093475
O          1.321666     1.801539     0.627374
H          2.276903     1.670009     0.616582
H          1.141935     2.724683     0.842806
O         -2.390327    -0.322307     0.707325
H         -3.122651     0.080379     0.219370
H         -2.401244     0.084327     1.563290

units ang
no_reorient
no_com
symmetry c1
}

set {
basis        aug-cc-pVTZ
scf_type     df
}

energy("mp2")
