MEMORY 60 GB

molecule dimer {
0 1
Gh(Na)     0.000000     0.000000     0.000000
Gh(O)      0.327213    -1.859611     1.348713
Gh(H)      0.542964    -2.554233     0.688897
Gh(H)     -0.548316    -2.057300     1.663678
Gh(O)      1.960777     1.106108    -0.764745
Gh(H)      1.831324     2.060066    -0.784795
Gh(H)      2.497879     1.060595    -1.621372
Gh(O)     -0.358398    -1.218556    -1.863096
Gh(H)      0.174529    -1.439270    -2.616413
Gh(H)     -0.633326    -2.005493    -1.343861
O         -1.731597     1.753884    -0.356645
H         -1.112098     2.484718    -0.459952
H         -1.915209     1.784048     0.600745
Gh(O)      0.225207     1.568908     1.853126
Gh(H)      0.455797     0.843306     2.428642
Gh(H)      0.938072     2.204615     1.866753

units ang
no_reorient
no_com
symmetry c1
}

set {
basis        aug-cc-pVTZ
scf_type     df
}

energy("mp2")
