MEMORY 60 GB

molecule dimer {
1 1
Na         0.000000     0.000000     0.000000
O         -0.332121    -2.281891     0.576606
H         -1.173755    -2.765721     0.225709
H          0.345779    -2.960927     0.521459
O          2.135977     0.253593     1.268585
H          2.395913    -0.668918     1.468574
H          2.696168     0.571416     0.528307
O         -2.315517     0.356728    -0.409186
H         -3.138798    -0.072402    -0.267720
H         -2.580394     1.283071    -0.200079
O          0.868281    -0.723066    -1.877874
H          0.164617    -1.195673    -2.317550
H          1.489308    -1.410794    -1.674628

units ang
no_reorient
no_com
symmetry c1
}

set {
basis        aug-cc-pVTZ
scf_type     df
}

energy("mp2")
