MEMORY 60 GB

molecule dimer {
0 1
Gh(Na)     0.000000     0.000000     0.000000
Gh(O)     -1.276190    -1.895462    -0.040608
Gh(H)     -2.127558    -2.381803    -0.032716
Gh(H)     -0.649478    -2.617925    -0.097285
Gh(O)      1.279520    -0.856733     1.908127
Gh(H)      1.429020    -1.725810     1.617383
Gh(H)      2.152061    -0.516055     2.066464
O          1.299180    -0.930748    -1.795194
H          1.895986    -0.426229    -2.417540
H          1.773401    -1.700742    -1.666497
Gh(O)     -1.150366     1.204114    -1.632613
Gh(H)     -0.622560     1.212033    -2.467742
Gh(H)     -1.635570     2.032036    -1.478611
Gh(O)      1.957058     1.448042    -0.052295
Gh(H)      2.006511     1.818263     0.762342
Gh(H)      2.834060     1.269535    -0.454297

units ang
no_reorient
no_com
symmetry c1
}

set {
basis        aug-cc-pVTZ
scf_type     df
}

energy("mp2")
