MEMORY 60 GB

molecule dimer {
0 1
Gh(Na)     0.000000     0.000000     0.000000
O         -0.763534     0.932846     2.231461
H         -0.733128     1.900005     2.285331
H         -0.178159     0.502091     2.866138
Gh(O)      0.452399     2.241951    -0.962680
Gh(H)      1.205593     2.615208    -0.515886
Gh(H)      0.800151     2.215705    -1.892096
Gh(O)      0.346113    -2.463872     0.347284
Gh(H)      0.268206    -3.107115    -0.361290
Gh(H)     -0.089641    -3.005871     1.016265
Gh(O)      2.050775    -0.213605    -1.193701
Gh(H)      2.004919    -1.173998    -1.292082
Gh(H)      2.563798    -0.024846    -0.341802
Gh(O)     -1.677611    -0.559730    -1.506099
Gh(H)     -2.457862    -0.155870    -2.009591
Gh(H)     -1.026711    -0.660387    -2.183118

units ang
no_reorient
no_com
symmetry c1
}

set {
basis        aug-cc-pVTZ
scf_type     df
}

energy("mp2")
