MEMORY 60 GB

molecule dimer {
0 1
Gh(Na)     0.000000     0.000000     0.000000
Gh(O)      1.626028     1.034922     1.580623
Gh(H)      1.378579     0.724001     2.502033
Gh(H)      2.064630     1.955065     1.635979
Gh(O)     -1.372352    -2.180406    -0.667887
Gh(H)     -1.156517    -2.493550     0.245784
Gh(H)     -1.510414    -2.963832    -1.183852
O         -1.339998     1.807402     0.199177
H         -1.582903     2.201952    -0.688290
H         -1.288117     2.504336     0.887083
Gh(O)     -1.123329    -0.697031     2.020695
Gh(H)     -0.556554    -0.315841     2.727097
Gh(H)     -1.512463    -1.540032     2.286606
Gh(O)     -0.325095     0.344770    -2.289885
Gh(H)     -0.904628    -0.206831    -2.834921
Gh(H)      0.583007     0.391315    -2.704986

units ang
no_reorient
no_com
symmetry c1
}

set {
basis        aug-cc-pVTZ
scf_type     df
}

energy("mp2")
