MEMORY 60 GB

molecule dimer {
1 1
Na     0.000000     0.000000     0.000000
--
0 1
O      1.253379    -0.553947    -1.795986
H      1.273490    -1.231624    -2.437543
H      2.156284    -0.245421    -1.763626
O      1.653641    -0.225820     1.459891
H      2.288234     0.493100     1.361670
H      1.659884    -0.507457     2.410014
O     -0.197384    -2.387924     0.118493
H      0.422453    -2.904071     0.645872
H     -0.888605    -3.002090    -0.148393
O     -0.691979     1.747232     1.638579
H     -0.060873     2.000291     2.305818
H     -0.951374     2.650499     1.367873

units ang
no_reorient
no_com
symmetry c1
}

set {
basis        aug-cc-pVTZ
scf_type     df
}

energy("mp2", bsse_type="cp")
