MEMORY 60 GB

molecule dimer {
1 1
Na     0.000000     0.000000     0.000000
--
0 1
O     -1.270892     0.775336    -1.734881
H     -2.041556     0.267356    -1.809439
H     -1.389474     1.715105    -2.154391
O     -1.538328     1.148730     1.663206
H     -2.479361     0.999225     1.788695
H     -1.153620     0.858041     2.489959
O      1.119723    -1.679292    -1.361821
H      1.074447    -1.430682    -2.285905
H      1.954304    -2.132372    -1.289916
O      1.802531    -0.151360     1.513496
H      1.956804    -0.794728     2.265743
H      2.401941    -0.491777     0.846105
O     -1.831106    -1.657480    -0.070603
H     -2.766494    -1.428010    -0.112170
H     -1.501432    -2.003291    -0.932357

units ang
no_reorient
no_com
symmetry c1
}

set {
basis        aug-cc-pVTZ
scf_type     df
}

energy("mp2", bsse_type="cp")
