MEMORY 60 GB

molecule dimer {
0 1
Gh(Na)     0.000000     0.000000     0.000000
O         -1.270703     1.958564     0.911769
H         -2.124725     1.551684     0.575181
H         -1.379974     2.228364     1.821269
Gh(O)      0.587472    -2.201463     0.748927
Gh(H)     -0.101641    -2.358357     1.431600
Gh(H)      1.379076    -2.483852     1.213110
Gh(O)     -2.211830    -1.319853     0.286643
Gh(H)     -2.899654    -0.680785     0.484013
Gh(H)     -1.960837    -1.588265     1.197980
Gh(O)      1.514145     0.926826     1.650245
Gh(H)      1.294798     1.672359     2.220085
Gh(H)      2.399115     1.116522     1.261384
Gh(O)     -0.863562     0.600979    -1.935483
Gh(H)     -1.872318     0.424331    -1.975920
Gh(H)     -0.615829     1.523469    -1.858067

units ang
no_reorient
no_com
symmetry c1
}

set {
basis        aug-cc-pVTZ
scf_type     df
}

energy("mp2")
