MEMORY 60 GB

molecule dimer {
0 1
Gh(Na)     0.000000     0.000000     0.000000
O         -1.476289     1.000580    -1.680201
H         -1.347957     0.330310    -2.372440
H         -2.429876     1.119469    -1.591365
Gh(O)      2.003211     0.161049    -1.174825
Gh(H)      2.679153     0.338854    -0.470757
Gh(H)      1.973185     0.976483    -1.680248
Gh(O)     -0.163112     1.557536     1.551695
Gh(H)      0.623683     2.047554     1.538014
Gh(H)     -0.465897     1.324097     2.431350
Gh(O)     -1.395492    -1.854519    -0.938929
Gh(H)     -1.529696    -2.656867    -0.415875
Gh(H)     -1.708751    -2.067533    -1.827479
Gh(O)      1.140018    -1.255107     1.603180
Gh(H)      2.012796    -1.642493     1.425109
Gh(H)      1.148354    -1.258433     2.534760

units ang
no_reorient
no_com
symmetry c1
}

set {
basis        aug-cc-pVTZ
scf_type     df
}

energy("mp2")
