MEMORY 60 GB

molecule dimer {
0 1
Gh(Na)     0.000000     0.000000     0.000000
Gh(O)      2.442818    -0.818335    -0.280039
Gh(H)      2.662756    -1.105563    -1.187076
Gh(H)      3.208163    -0.351618     0.190231
Gh(O)     -0.058577    -2.340401    -0.318056
Gh(H)     -0.112691    -2.261522    -1.308213
Gh(H)      0.766812    -2.877198    -0.136880
Gh(O)      0.863805     0.451918     1.955806
Gh(H)      0.128582     0.541557     2.595334
Gh(H)      1.459083    -0.217450     2.287615
O         -0.118006     0.999042    -2.213928
H         -0.295160     0.203419    -2.715433
H         -0.977633     1.399250    -1.948543
Gh(O)     -2.250881    -0.512047    -0.293423
Gh(H)     -2.775036    -0.153755     0.439369
Gh(H)     -2.575489    -1.386135    -0.545203

units ang
no_reorient
no_com
symmetry c1
}

set {
basis        aug-cc-pVTZ
scf_type     df
}

energy("mp2")
