MEMORY 60 GB

molecule dimer {
0 1
Gh(Na)     0.000000     0.000000     0.000000
Gh(O)      0.678160     2.284288    -0.397643
Gh(H)      1.614332     2.337963    -0.456092
Gh(H)      0.453059     2.958377     0.208204
Gh(O)     -1.023978    -2.189835     0.746360
Gh(H)     -0.521172    -2.711199     0.158310
Gh(H)     -0.741558    -2.343754     1.621825
O         -1.055877     1.483188     1.542185
H         -1.151422     2.354443     1.184827
H         -1.725839     1.293498     2.192923
Gh(O)      1.362518    -0.511661    -1.626750
Gh(H)      1.650715    -0.789797    -2.502568
Gh(H)      2.116689    -0.657072    -1.084660

units ang
no_reorient
no_com
symmetry c1
}

set {
basis        aug-cc-pVTZ
scf_type     df
}

energy("mp2")
