MEMORY 60 GB

molecule dimer {
1 1
Na         0.000000     0.000000     0.000000
O          1.953031     0.831091     0.860219
H          2.066769     1.791772     0.968498
H          2.719642     0.442245     0.453626
O          0.997390    -1.806691    -0.823923
H          0.719927    -2.694832    -0.590439
H          1.062663    -1.693952    -1.760597
O         -2.359813    -0.522401    -0.218748
H         -3.107352    -1.043213     0.090344
H         -2.840960     0.185888    -0.550284
O         -1.307455     1.999734     0.923894
H         -2.152987     2.044750     1.490236
H         -1.483833     2.732670     0.295877
O         -0.718067     0.947143    -2.169991
H         -1.389460     1.635350    -2.029136
H          0.120162     1.348159    -2.406870
O         -0.441223    -1.492378     2.010603
H          0.380909    -1.895708     2.175635
H         -0.383827    -0.728813     2.596321

units ang
no_reorient
no_com
symmetry c1
}

set {
basis        aug-cc-pVTZ
scf_type     df
}

energy("mp2")
