MEMORY 60 GB

molecule dimer {
1 1
Na     0.000000     0.000000     0.000000
--
0 1
O      1.141551    -0.269713    -2.063354
H      0.581191     0.178954    -2.697423
H      1.852964     0.355336    -1.816107
O     -1.079228    -1.527136     1.353753
H     -0.231296    -1.832250     1.704646
H     -1.535491    -1.112505     2.099170
O      1.382305     1.712080     0.506694
H      2.284929     1.263696     0.506647
H      1.263960     2.214578     1.342307
O     -1.935349     1.087739    -0.470061
H     -2.792958     0.609916    -0.258886
H     -2.113097     1.840844    -1.058981

units ang
no_reorient
no_com
symmetry c1
}

set {
basis        aug-cc-pVTZ
scf_type     df
}

energy("mp2", bsse_type="cp")
