MEMORY 60 GB

molecule dimer {
1 1
Na         0.000000     0.000000     0.000000
O         -1.371627    -0.910990    -1.738968
H         -2.225004    -0.362023    -1.723958
H         -1.583777    -1.810688    -1.348074
O         -1.627495     1.776149     0.403766
H         -1.295572     2.668369     0.129330
H         -2.180298     1.827238     1.131582
O          1.777113    -1.842919    -0.309474
H          1.036427    -2.184772     0.244859
H          2.605022    -1.908448     0.154364
O         -0.746949    -1.450897     1.784131
H         -1.396092    -2.132055     1.814768
H         -0.857192    -1.089903     2.632736

units ang
no_reorient
no_com
symmetry c1
}

set {
basis        aug-cc-pVTZ
scf_type     df
}

energy("mp2")
