MEMORY 60 GB

molecule dimer {
0 1
Gh(Na)     0.000000     0.000000     0.000000
Gh(O)     -0.033562     0.651864    -2.283036
Gh(H)      0.894796     0.893756    -2.460802
Gh(H)     -0.574548     1.432965    -2.476385
Gh(O)      2.159584    -0.736393     0.244526
Gh(H)      2.484224    -0.797737    -0.668585
Gh(H)      2.769476    -0.050577     0.618321
Gh(O)      1.010079     1.997128     0.381980
Gh(H)      1.335088     1.941477     1.298553
Gh(H)      1.836526     2.246424    -0.124748
Gh(O)     -0.693443    -2.201180    -0.087038
Gh(H)     -1.384165    -2.200407     0.626177
Gh(H)     -1.159158    -2.555826    -0.870984
O         -0.562174    -0.147253     2.221974
H          0.059516    -0.569628     2.892423
H         -0.988942     0.664075     2.631446
Gh(O)     -2.540820     0.600282    -0.110639
Gh(H)     -2.964940    -0.234719     0.142310
Gh(H)     -2.996517     1.319936     0.377222

units ang
no_reorient
no_com
symmetry c1
}

set {
basis        aug-cc-pVTZ
scf_type     df
}

energy("mp2")
