MEMORY 60 GB

molecule dimer {
0 1
Gh(Na)     0.000000     0.000000     0.000000
O          2.497786    -0.242273     0.422092
H          3.049045    -0.461710    -0.372715
H          2.916442     0.393536     1.013630
Gh(O)     -0.170722     1.880488     1.566801
Gh(H)     -0.585546     2.675444     1.117741
Gh(H)     -0.725283     1.778538     2.397862
Gh(O)     -0.123890    -2.509853    -0.843574
Gh(H)     -0.312475    -3.220754    -0.195645
Gh(H)     -0.767002    -2.582567    -1.518445
Gh(O)     -2.372716     0.104252     0.086632
Gh(H)     -3.016397     0.698396     0.520165
Gh(H)     -2.302894    -0.639156     0.705936

units ang
no_reorient
no_com
symmetry c1
}

set {
basis        aug-cc-pVTZ
scf_type     df
}

energy("mp2")
