MEMORY 60 GB

molecule dimer {
0 1
Gh(Na)     0.000000     0.000000     0.000000
Gh(O)     -2.215330    -1.211537    -0.435171
Gh(H)     -2.946479    -1.040175     0.184638
Gh(H)     -2.480537    -0.897294    -1.285925
O         -1.377703     1.646645     0.851564
H         -0.838544     2.401427     0.750035
H         -2.139544     1.659704     0.318542
Gh(O)      2.135687     1.382859    -0.640918
Gh(H)      2.124534     2.024732    -1.423235
Gh(H)      3.036809     1.045545    -0.627099
Gh(O)      0.991615    -1.503469    -1.538780
Gh(H)      0.523070    -2.328162    -1.765905
Gh(H)      1.872728    -1.692798    -1.836695
Gh(O)      0.609934    -0.580290     2.198415
Gh(H)      1.329489    -1.199807     2.453223
Gh(H)      0.835592     0.356422     2.441611

units ang
no_reorient
no_com
symmetry c1
}

set {
basis        aug-cc-pVTZ
scf_type     df
}

energy("mp2")
