MEMORY 60 GB

molecule dimer {
1 1
Na         0.000000     0.000000     0.000000
O         -1.519224     0.743307    -1.517371
H         -2.170232     1.445420    -1.313542
H         -1.928734     0.240608    -2.180940
O          0.880839    -0.923193    -1.792672
H          0.384739    -1.662288    -2.202197
H          0.908594    -0.270491    -2.520157
O         -0.829751    -2.398045     0.046518
H         -0.436846    -2.980410     0.712108
H         -1.756796    -2.284077     0.333535
O          1.813124    -0.230890     1.363483
H          2.118748    -1.000546     0.923160
H          2.605605     0.291871     1.236262
O          0.328695     2.432253     0.024011
H          1.248695     2.702953    -0.044667
H         -0.191218     2.949578    -0.590188

units ang
no_reorient
no_com
symmetry c1
}

set {
basis        aug-cc-pVTZ
scf_type     df
}

energy("mp2")
