MEMORY 60 GB

molecule dimer {
0 1
Gh(Na)     0.000000     0.000000     0.000000
Gh(O)     -2.057757    -0.567435    -1.344412
Gh(H)     -2.384068    -1.418540    -1.257705
Gh(H)     -2.568328    -0.071263    -1.951173
Gh(O)      0.120681    -1.848179     1.208782
Gh(H)     -0.814575    -2.083590     1.439398
Gh(H)      0.484907    -2.595566     0.683991
Gh(O)      0.592422    -1.139151    -2.248474
Gh(H)     -0.326986    -1.097038    -2.041671
Gh(H)      0.797950    -2.100848    -2.177029
Gh(O)      2.158692     0.499247     0.293467
Gh(H)      2.128230     1.387558     0.586444
Gh(H)      2.800191     0.400597    -0.407694
O         -1.819980     0.746347     1.326387
H         -2.366039    -0.038270     1.450016
H         -1.335759     0.819436     2.149391

units ang
no_reorient
no_com
symmetry c1
}

set {
basis        aug-cc-pVTZ
scf_type     df
}

energy("mp2")
