MEMORY 60 GB

molecule dimer {
0 1
Gh(Na)     0.000000     0.000000     0.000000
Gh(O)     -0.373908    -0.320673     2.484518
Gh(H)     -1.075171     0.267965     2.781766
Gh(H)      0.357161    -0.112230     3.132774
Gh(O)      0.260806     2.188773     0.689234
Gh(H)      1.017755     2.399399     1.221425
Gh(H)     -0.370081     2.837143     1.057611
Gh(O)      2.323825    -0.799730    -0.920658
Gh(H)      3.073215    -0.195934    -0.764671
Gh(H)      2.715529    -1.654161    -1.127599
O         -0.099702    -2.132529    -0.499752
H         -0.685269    -2.335558    -1.251089
H          0.749660    -2.501080    -0.828822
Gh(O)     -1.009062     0.489742    -2.280169
Gh(H)     -1.671643    -0.043495    -2.783804
Gh(H)     -1.520087     1.285755    -2.004546
Gh(O)     -2.549908    -0.286113    -0.075637
Gh(H)     -2.716610     0.677349    -0.098151
Gh(H)     -3.230088    -0.649298    -0.683917

units ang
no_reorient
no_com
symmetry c1
}

set {
basis        aug-cc-pVTZ
scf_type     df
}

energy("mp2")
