MEMORY 60 GB

molecule dimer {
1 1
Na         0.000000     0.000000     0.000000
O          1.442910    -1.615519    -0.724539
H          2.256766    -1.142850    -0.890378
H          1.587192    -2.224263     0.048492
O         -0.953321     0.932193    -1.763865
H         -1.633057     1.511012    -1.396330
H         -0.910682     1.229146    -2.659653
O         -0.002406     0.246926     2.384799
H          0.732056    -0.107898     2.849308
H          0.173253     1.192445     2.308746
O          2.128873     1.405530     0.211056
H          2.986769     1.017955     0.261027
H          2.073410     1.856766    -0.680462
O         -2.115569    -0.327278     0.500773
H         -2.586886    -0.082643    -0.302497
H         -2.583910     0.063951     1.259491

units ang
no_reorient
no_com
symmetry c1
}

set {
basis        aug-cc-pVTZ
scf_type     df
}

energy("mp2")
