MEMORY 60 GB

molecule dimer {
1 1
Na         0.000000     0.000000     0.000000
Gh(O)      2.161813     1.206626    -0.266700
Gh(H)      2.702963     0.459594    -0.645875
Gh(H)      2.788583     1.720992     0.282642
Gh(O)     -0.556590    -0.575984    -2.179488
Gh(H)     -1.017472     0.122616    -2.697717
Gh(H)      0.357469    -0.689631    -2.443771
Gh(O)      0.229150     0.481834     2.206901
Gh(H)     -0.313539     1.262282     2.430655
Gh(H)      0.022652    -0.088819     2.940612
Gh(O)     -0.111430    -2.057137     0.450586
Gh(H)     -0.126469    -2.559975    -0.403823
Gh(H)     -0.555096    -2.521016     1.178518
Gh(O)     -1.173824     1.990268    -0.285624
Gh(H)     -1.323983     2.704336    -0.895645
Gh(H)     -1.221891     2.483177     0.551307

units ang
no_reorient
no_com
symmetry c1
}

set {
basis        aug-cc-pVTZ
scf_type     df
}

energy("mp2")
