MEMORY 60 GB

molecule dimer {
1 1
Na         0.000000     0.000000     0.000000
O         -0.897532    -2.178500     0.017525
H         -1.843403    -2.189920     0.149337
H         -0.582756    -2.774658     0.713365
O          1.591836     0.043402     2.008514
H          1.716990     0.920967     2.376036
H          1.411828    -0.601746     2.676202
O         -1.189951     0.486911    -1.920717
H         -1.068420     0.988809    -2.658257
H         -2.180180     0.605188    -1.812331
O         -0.608989     2.168295     1.082772
H         -1.262092     2.080125     1.733612
H         -0.903001     2.839890     0.429345
O          1.897515     0.031709    -1.711733
H          2.558639     0.731250    -1.645906
H          1.496705     0.148755    -2.522837

units ang
no_reorient
no_com
symmetry c1
}

set {
basis        aug-cc-pVTZ
scf_type     df
}

energy("mp2")
