MEMORY 60 GB

molecule dimer {
0 1
Gh(Na)     0.000000     0.000000     0.000000
Gh(O)     -0.957217     2.122090    -0.761212
Gh(H)     -1.756905     1.952064    -0.198211
Gh(H)     -0.493506     2.945806    -0.576286
Gh(O)      0.133480    -1.128660     2.008379
Gh(H)      0.952107    -0.954206     2.471368
Gh(H)      0.032812    -2.050612     2.218947
O          0.989929    -0.442935    -1.982346
H          1.363465    -1.289649    -2.267338
H          1.775598     0.121932    -1.899567
Gh(O)     -2.129823    -0.676424    -0.211748
Gh(H)     -2.343077    -0.516159    -1.166244
Gh(H)     -2.379667    -1.590251     0.046925
Gh(O)      2.120634     0.776730     0.226244
Gh(H)      2.587905    -0.008159     0.581668
Gh(H)      2.704948     1.475568     0.516434

units ang
no_reorient
no_com
symmetry c1
}

set {
basis        aug-cc-pVTZ
scf_type     df
}

energy("mp2")
