MEMORY 60 GB

molecule dimer {
0 1
Gh(Na)     0.000000     0.000000     0.000000
Gh(O)      1.123334     2.081258    -0.572008
Gh(H)      1.216698     2.687495     0.190794
Gh(H)      1.959598     2.117506    -1.056213
Gh(O)      2.258056    -1.030970     0.237516
Gh(H)      2.691734    -0.383332     0.814519
Gh(H)      2.334528    -0.786860    -0.703473
O         -0.907363    -1.944297     0.044354
H         -1.273537    -2.411135    -0.753502
H         -1.634033    -1.924246     0.641980
Gh(O)     -2.039574     0.663792    -0.777922
Gh(H)     -1.939320     1.285531    -1.453140
Gh(H)     -2.627457    -0.060953    -1.090527

units ang
no_reorient
no_com
symmetry c1
}

set {
basis        aug-cc-pVTZ
scf_type     df
}

energy("mp2")
