MEMORY 60 GB

molecule dimer {
0 1
Gh(Na)     0.000000     0.000000     0.000000
Gh(O)      0.112621    -1.386806    -1.972606
Gh(H)      0.672583    -1.550070    -2.775900
Gh(H)     -0.603129    -2.048594    -1.903750
Gh(O)      1.852574    -1.386479     0.816134
Gh(H)      2.242350    -2.087796     0.203988
Gh(H)      1.341615    -1.750473     1.542276
Gh(O)     -2.022339     1.221625    -0.636373
Gh(H)     -2.927026     0.757137    -0.600158
Gh(H)     -1.792091     1.337729    -1.566912
O         -1.416620    -1.275424     1.492934
H         -2.160042    -1.185167     2.079025
H         -0.840556    -1.926141     1.953126
Gh(O)      2.144001     1.442874    -0.647730
Gh(H)      2.575039     1.174574    -1.498240
Gh(H)      2.815913     1.315215     0.053847
Gh(O)      0.138862     1.360945     1.935363
Gh(H)      0.721431     2.052917     2.221916
Gh(H)     -0.531806     1.357180     2.629171

units ang
no_reorient
no_com
symmetry c1
}

set {
basis        aug-cc-pVTZ
scf_type     df
}

energy("mp2")
