MEMORY 60 GB

molecule dimer {
1 1
Na         0.000000     0.000000     0.000000
O          2.200023    -0.188222    -0.286542
H          2.895583     0.458553    -0.239530
H          2.596252    -0.970724    -0.637590
O         -2.027672     0.184032     1.494454
H         -2.514049    -0.102364     0.712930
H         -2.397718     1.017536     1.839885
O         -0.365594    -2.633320     0.181044
H         -1.247852    -2.871394     0.397864
H         -0.040790    -3.230710    -0.525988
O         -0.373167     2.099173    -1.094592
H         -0.625127     2.930081    -0.644687
H         -0.748604     2.251364    -1.958488
O          0.543302     1.414289     1.993847
H          1.399965     1.002046     2.227791
H         -0.019699     1.251749     2.818915

units ang
no_reorient
no_com
symmetry c1
}

set {
basis        aug-cc-pVTZ
scf_type     df
}

energy("mp2")
