MEMORY 60 GB

molecule dimer {
1 1
Na     0.000000     0.000000     0.000000
--
0 1
O     -0.283701     1.578559     1.887976
H      0.085980     1.398434     2.801414
H      0.312072     2.205050     1.541846
O     -1.725746    -1.417014     0.457220
H     -2.523655    -1.143003     0.934820
H     -1.900792    -2.355054     0.361742
O      1.131277    -1.180347     1.903162
H      1.903346    -1.656998     2.213950
H      0.798789    -0.647920     2.640386
O     -0.883525     1.834306    -1.288208
H     -0.936557     2.764670    -0.982975
H     -0.954930     2.069278    -2.199800

units ang
no_reorient
no_com
symmetry c1
}

set {
basis        aug-cc-pVTZ
scf_type     df
}

energy("mp2", bsse_type="cp")
