MEMORY 60 GB

molecule dimer {
0 1
Gh(Na)     0.000000     0.000000     0.000000
O          0.897942     0.232779    -2.242681
H          0.375770     0.945152    -2.637263
H          1.742548     0.701814    -2.136948
Gh(O)     -0.526370    -2.247938    -0.113789
Gh(H)     -0.067939    -2.929889     0.403156
Gh(H)     -1.121253    -2.676460    -0.712395
Gh(O)      0.965071     2.227927    -0.066810
Gh(H)      1.977096     2.201242     0.110202
Gh(H)      0.828364     2.723446    -0.874262
Gh(O)     -0.282618     0.653366     2.269494
Gh(H)     -1.091358     0.346471     2.688083
Gh(H)      0.398640     0.607206     2.959686

units ang
no_reorient
no_com
symmetry c1
}

set {
basis        aug-cc-pVTZ
scf_type     df
}

energy("mp2")
