MEMORY 60 GB

molecule dimer {
0 1
Gh(Na)     0.000000     0.000000     0.000000
Gh(O)     -1.136205     2.109216     0.011475
Gh(H)     -1.817514     2.445570     0.580069
Gh(H)     -0.451115     2.773422    -0.131302
Gh(O)      1.252024    -2.158597    -0.042907
Gh(H)      1.513019    -2.709178     0.698471
Gh(H)      1.692694    -2.571460    -0.772312
O          2.180151     1.061963    -0.494664
H          2.109145     1.159492    -1.466466
H          2.569159     1.827540    -0.098947
Gh(O)     -0.175210     0.603986    -2.316960
Gh(H)     -0.687306    -0.098022    -2.722072
Gh(H)     -0.718872     1.408419    -2.299209
Gh(O)     -0.000383    -0.188447     2.289591
Gh(H)      0.693352    -0.570890     2.866500
Gh(H)     -0.819570    -0.668426     2.496017

units ang
no_reorient
no_com
symmetry c1
}

set {
basis        aug-cc-pVTZ
scf_type     df
}

energy("mp2")
