MEMORY 60 GB

molecule dimer {
1 1
Na         0.000000     0.000000     0.000000
O         -0.673232    -1.361551     1.844656
H         -1.547116    -1.792032     1.858565
H         -0.316973    -1.439934     2.743867
O          0.336907     1.936373     1.176897
H          0.697941     1.645446     2.028898
H         -0.264584     2.611499     1.395482
O          2.529759    -0.112909    -0.584417
H          2.441833     0.580572    -1.291541
H          2.910429    -0.881984    -1.056684
O         -0.010284    -1.811195    -1.348257
H          0.547324    -2.624263    -1.265891
H         -0.939829    -2.087539    -1.346780
O         -2.278247     0.340150    -0.389340
H         -3.045876     0.723307     0.114275
H         -2.643174    -0.488879    -0.716904

units ang
no_reorient
no_com
symmetry c1
}

set {
basis        aug-cc-pVTZ
scf_type     df
}

energy("mp2")
