MEMORY 60 GB

molecule dimer {
1 1
Na         0.000000     0.000000     0.000000
Gh(O)      0.766127     0.515039     1.981709
Gh(H)      1.319922    -0.208424     2.371871
Gh(H)      0.227460     0.853158     2.684082
Gh(O)      1.024406     2.176228    -1.057194
Gh(H)      1.536833     2.576739    -0.331655
Gh(H)      0.165288     2.624778    -1.158303
Gh(O)     -0.492044    -0.696903    -2.430464
Gh(H)      0.340264    -0.313786    -2.821962
Gh(H)     -0.852891    -1.398862    -2.972918
Gh(O)     -2.210786     0.705829     0.674056
Gh(H)     -2.694782     0.461413     1.505258
Gh(H)     -2.606634     1.473977     0.320053

units ang
no_reorient
no_com
symmetry c1
}

set {
basis        aug-cc-pVTZ
scf_type     df
}

energy("mp2")
