MEMORY 60 GB

molecule dimer {
0 1
Gh(Na)     0.000000     0.000000     0.000000
Gh(O)     -1.303188     1.664866     1.104595
Gh(H)     -0.470288     2.199361     1.156535
Gh(H)     -1.573108     1.918059     0.254875
Gh(O)      0.729354    -2.356522     0.687908
Gh(H)      1.312049    -1.877683     1.251734
Gh(H)      0.115995    -2.750276     1.273369
O          0.100788    -0.239392    -2.295890
H         -0.074582     0.302705    -3.084869
H         -0.313292    -1.090884    -2.589965
Gh(O)      2.035040     1.209218     0.044939
Gh(H)      2.826981     0.709029     0.335038
Gh(H)      2.348264     1.657480    -0.765905

units ang
no_reorient
no_com
symmetry c1
}

set {
basis        aug-cc-pVTZ
scf_type     df
}

energy("mp2")
