MEMORY 60 GB

molecule dimer {
1 1
Na         0.000000     0.000000     0.000000
O         -1.280774    -0.759773     2.066537
H         -1.536429    -0.091676     2.765012
H         -1.901665    -1.511168     1.950498
O         -0.717471     2.091250    -0.901495
H          0.059317     2.629287    -1.164866
H         -1.476620     2.438268    -1.368779
O         -1.822223    -1.577676    -0.958332
H         -1.691050    -2.150752    -1.657492
H         -2.466734    -0.986478    -1.244925
O          1.591137     0.542267     1.515629
H          1.976809    -0.291838     1.794945
H          2.435743     1.172111     1.550722
O          0.916176    -2.475189     0.174402
H          1.088176    -2.332722     1.102282
H          0.002816    -2.742338     0.107943
O          1.503194     0.599374    -1.995198
H          1.887717    -0.218723    -2.491432
H          1.765947     1.338805    -2.568431

units ang
no_reorient
no_com
symmetry c1
}

set {
basis        aug-cc-pVTZ
scf_type     df
}

energy("mp2")
