MEMORY 60 GB

molecule dimer {
0 1
Gh(Na)     0.000000     0.000000     0.000000
Gh(O)      1.253579     0.063260    -2.196883
Gh(H)      0.530569    -0.042832    -2.850777
Gh(H)      1.564699     0.980568    -2.311182
Gh(O)     -1.425901     1.291559    -1.588414
Gh(H)     -2.039556     2.035442    -1.483596
Gh(H)     -1.231776     1.193012    -2.572110
Gh(O)      1.955432     0.647696     0.920318
Gh(H)      2.748734     0.681493     0.364928
Gh(H)      2.082270     1.398481     1.485384
O         -1.171308     1.996727     1.191900
H         -0.733170     1.943359     2.043845
H         -0.778785     2.688259     0.685134
Gh(O)     -1.590268    -1.637366     0.582324
Gh(H)     -1.565435    -2.598292     0.444562
Gh(H)     -2.397617    -1.328886     0.147644
Gh(O)      1.193429    -2.328553     0.401489
Gh(H)      1.334662    -2.417231     1.342880
Gh(H)      0.959023    -3.262843     0.115842

units ang
no_reorient
no_com
symmetry c1
}

set {
basis        aug-cc-pVTZ
scf_type     df
}

energy("mp2")
