MEMORY 60 GB

molecule dimer {
1 1
Na     0.000000     0.000000     0.000000
--
0 1
O      1.592894    -1.543639    -0.308375
H      1.423686    -2.341419    -0.830979
H      2.403710    -1.151684    -0.598431
O      1.988946     0.824225     1.115878
H      2.779875     0.295505     1.252466
H      2.237778     1.548762     0.503946
O     -0.323220     1.312717     2.049838
H      0.524459     0.926454     2.265662
H     -1.000485     1.060576     2.756433
O     -1.798560    -1.449805     0.232533
H     -2.520777    -1.195942    -0.335276
H     -2.004259    -2.272448     0.655052
O      1.457351     0.926491    -1.892607
H      2.288674     0.755986    -1.447960
H      1.638498     1.608992    -2.536718
O     -1.853918     1.628861    -0.694243
H     -2.596561     1.796080    -1.223462
H     -1.590046     2.537809    -0.490567

units ang
no_reorient
no_com
symmetry c1
}

set {
basis        aug-cc-pVTZ
scf_type     df
}

energy("mp2", bsse_type="cp")
