MEMORY 60 GB

molecule dimer {
1 1
Na     0.000000     0.000000     0.000000
--
0 1
O      2.205971     0.635159     0.728373
H      3.053339     0.255335     0.378257
H      2.077247     0.411983     1.671787
O     -2.285012    -0.545726    -1.025332
H     -1.993376    -0.558243    -1.924281
H     -2.614469    -1.469788    -0.906414
O      0.374764     0.481414    -2.151325
H     -0.097932    -0.007771    -2.837168
H      0.086886     1.404508    -2.205016
O     -1.072663     0.652617     2.238731
H     -0.201901     0.519877     2.729850
H     -1.247442     1.590189     2.428781

units ang
no_reorient
no_com
symmetry c1
}

set {
basis        aug-cc-pVTZ
scf_type     df
}

energy("mp2", bsse_type="cp")
