MEMORY 60 GB

molecule dimer {
0 1
Gh(Na)     0.000000     0.000000     0.000000
O          1.436661     1.902962    -0.211771
H          2.350805     1.847534     0.091780
H          1.026974     2.533356     0.386801
Gh(O)     -1.323065    -1.521620    -1.098658
Gh(H)     -2.179765    -1.636529    -1.427199
Gh(H)     -0.814186    -2.298524    -1.350965
Gh(O)     -1.869489     1.230228     0.654969
Gh(H)     -2.527117     1.848262     0.238872
Gh(H)     -2.357574     0.443019     0.966796
Gh(O)      0.132845    -0.887295     1.960114
Gh(H)     -0.489936    -1.193447     2.627722
Gh(H)      0.980462    -1.159278     2.361285
Gh(O)      1.844118    -1.561191    -0.276992
Gh(H)      2.698911    -1.163388     0.115895
Gh(H)      1.690859    -2.432842     0.069830

units ang
no_reorient
no_com
symmetry c1
}

set {
basis        aug-cc-pVTZ
scf_type     df
}

energy("mp2")
