MEMORY 60 GB

molecule dimer {
1 1
Na     0.000000     0.000000     0.000000
--
0 1
O     -2.147953     1.230804    -0.093503
H     -2.318329     0.383817    -0.571927
H     -2.658431     1.257994     0.763361
O      2.051616    -1.053276     0.872783
H      2.660167    -0.510539     1.345025
H      1.963060    -1.818037     1.441353
O     -0.595914    -2.448793    -0.109229
H     -1.546233    -2.159324     0.026620
H     -0.520204    -2.750060    -0.965962
O      0.312160    -0.147696    -2.334927
H      1.097607    -0.716514    -2.380416
H      0.370388     0.519974    -3.036401
O     -1.188602    -0.231517     2.310981
H     -2.121229     0.121115     2.269242
H     -1.269202    -1.128717     2.652519
O      0.641094     2.197153     0.802216
H      0.985102     2.733240     0.042057
H     -0.201655     2.600602     0.994387

units ang
no_reorient
no_com
symmetry c1
}

set {
basis        aug-cc-pVTZ
scf_type     df
}

energy("mp2", bsse_type="cp")
