MEMORY 60 GB

molecule dimer {
1 1
Na     0.000000     0.000000     0.000000
--
0 1
O     -1.339451    -1.201724     1.367541
H     -2.235805    -0.821142     1.302148
H     -1.569153    -2.182228     1.427508
O      1.319402     1.894139     0.435760
H      1.823232     2.262470    -0.335659
H      1.739025     2.258973     1.197774
O      1.589395    -1.392547     1.045193
H      1.704872    -2.231908     0.499963
H      2.479783    -0.955865     0.973167
O     -1.214799     0.904461    -1.992201
H     -0.703953     1.278966    -2.714790
H     -2.095167     1.261371    -2.013025

units ang
no_reorient
no_com
symmetry c1
}

set {
basis        aug-cc-pVTZ
scf_type     df
}

energy("mp2", bsse_type="cp")
