MEMORY 60 GB

molecule dimer {
1 1
Na         0.000000     0.000000     0.000000
Gh(O)      1.277477    -1.767812    -0.575450
Gh(H)      0.780188    -2.469714    -0.998624
Gh(H)      2.217875    -1.661537    -0.908748
Gh(O)     -1.969258     1.692991    -0.479796
Gh(H)     -2.121142     1.504376    -1.395083
Gh(H)     -1.578749     2.546515    -0.346354
Gh(O)      2.202998     0.822357    -0.111544
Gh(H)      3.092868     0.791390     0.244148
Gh(H)      2.456428     0.648289    -1.002973
Gh(O)     -1.745283    -1.493277     0.287650
Gh(H)     -1.790260    -1.500231     1.250476
Gh(H)     -1.310641    -2.335748     0.072603

units ang
no_reorient
no_com
symmetry c1
}

set {
basis        aug-cc-pVTZ
scf_type     df
}

energy("mp2")
