MEMORY 60 GB

molecule dimer {
0 1
Gh(Na)     0.000000     0.000000     0.000000
O          1.592894    -1.543639    -0.308375
H          1.423686    -2.341419    -0.830979
H          2.403710    -1.151684    -0.598431
Gh(O)      1.988946     0.824225     1.115878
Gh(H)      2.779875     0.295505     1.252466
Gh(H)      2.237778     1.548762     0.503946
Gh(O)     -0.323220     1.312717     2.049838
Gh(H)      0.524459     0.926454     2.265662
Gh(H)     -1.000485     1.060576     2.756433
Gh(O)     -1.798560    -1.449805     0.232533
Gh(H)     -2.520777    -1.195942    -0.335276
Gh(H)     -2.004259    -2.272448     0.655052
Gh(O)      1.457351     0.926491    -1.892607
Gh(H)      2.288674     0.755986    -1.447960
Gh(H)      1.638498     1.608992    -2.536718
Gh(O)     -1.853918     1.628861    -0.694243
Gh(H)     -2.596561     1.796080    -1.223462
Gh(H)     -1.590046     2.537809    -0.490567

units ang
no_reorient
no_com
symmetry c1
}

set {
basis        aug-cc-pVTZ
scf_type     df
}

energy("mp2")
