MEMORY 60 GB

molecule dimer {
0 1
Gh(Na)     0.000000     0.000000     0.000000
Gh(O)      2.286825     0.018738     1.162364
Gh(H)      2.422507    -0.937629     1.320021
Gh(H)      3.154241     0.354742     0.916157
Gh(O)     -1.940000    -0.872605    -1.363045
Gh(H)     -1.549085    -0.576304    -2.160318
Gh(H)     -1.845344    -1.858086    -1.342483
Gh(O)     -0.655173     1.813118     1.423743
Gh(H)     -0.115660     2.337774     1.998990
Gh(H)     -1.523922     1.648894     1.868316
Gh(O)      0.732611    -2.100991    -1.445357
Gh(H)      1.373649    -1.504174    -1.763716
Gh(H)      1.227791    -2.880539    -1.203486
O          0.580925     2.071104    -1.522124
H          1.295984     2.707142    -1.331350
H          0.539691     1.997408    -2.447503
Gh(O)     -0.668604    -1.590147     1.552221
Gh(H)     -1.165794    -0.844968     2.001000
Gh(H)     -1.282074    -2.299719     1.373430

units ang
no_reorient
no_com
symmetry c1
}

set {
basis        aug-cc-pVTZ
scf_type     df
}

energy("mp2")
