MEMORY 60 GB

molecule dimer {
0 1
Gh(K)      0.000000     0.000000     0.000000
O          1.478006     0.717897    -1.948128
H          1.494997     0.601610    -2.908738
H          2.334047     1.201082    -1.842671
Gh(O)     -2.661762     0.783294    -0.605565
Gh(H)     -3.465178     1.092006    -0.190818
Gh(H)     -2.885772     0.543165    -1.519228
Gh(O)     -0.002906     2.840525    -0.171305
Gh(H)     -0.856087     3.028844    -0.630236
Gh(H)      0.477889     3.665808    -0.151625

units ang
no_reorient
no_com
symmetry c1
}

set {
basis        aug-cc-pVTZ
scf_type     df
}

energy("mp2")
