MEMORY 60 GB

molecule dimer {
1 1
K          0.000000     0.000000     0.000000
O          0.075155    -1.723621    -2.222691
H          0.160553    -2.664415    -2.167190
H          0.364851    -1.484375    -3.131935
O          1.231668    -2.456321     1.234605
H          1.127068    -3.384287     0.950491
H          0.887056    -2.271199     2.158531
O         -2.591511    -1.086420     0.720781
H         -3.095590    -1.651979     1.265500
H         -3.189225    -0.757403     0.067002
O          0.999639     2.617895     0.271985
H          0.388983     3.122801     0.770979
H          1.638461     2.439843     1.007245
O          1.255850     0.564449     2.393699
H          1.293308     0.072444     3.193687
H          1.888924     1.216741     2.629633

units ang
no_reorient
no_com
symmetry c1
}

set {
basis        aug-cc-pVTZ
scf_type     df
}

energy("mp2")
