MEMORY 60 GB

molecule dimer {
1 1
K          0.000000     0.000000     0.000000
Gh(O)      0.577144     2.541320     0.000600
Gh(H)      1.213804     2.744613     0.747683
Gh(H)     -0.094201     3.104652     0.284161
Gh(O)     -2.116734    -0.221233    -1.605170
Gh(H)     -2.311595     0.706106    -1.826664
Gh(H)     -1.611838    -0.483958    -2.409399
Gh(O)     -0.049892    -1.890371     2.061110
Gh(H)      0.247910    -2.821836     2.137168
Gh(H)     -0.958496    -1.910780     2.339261
Gh(O)      1.916245     0.015119    -1.956164
Gh(H)      2.821662     0.235522    -1.746799
Gh(H)      1.929350    -0.944808    -2.052363

units ang
no_reorient
no_com
symmetry c1
}

set {
basis        aug-cc-pVTZ
scf_type     df
}

energy("mp2")
