MEMORY 60 GB

molecule dimer {
0 1
Gh(K)      0.000000     0.000000     0.000000
Gh(O)     -2.854442     0.584840    -0.122179
Gh(H)     -3.265333    -0.153361     0.306368
Gh(H)     -3.159443     1.375887     0.435029
Gh(O)      1.793507     2.390251     0.448386
Gh(H)      1.484797     2.937877    -0.247414
Gh(H)      2.760113     2.530882     0.485450
Gh(O)     -0.012318     1.515708    -2.116487
Gh(H)     -0.444712     1.661309    -2.931489
Gh(H)      0.234305     2.352957    -1.751290
O         -0.359420    -0.604796     2.633990
H          0.279877    -0.081645     3.137778
H         -0.226378    -1.549243     2.698047
Gh(O)      2.595565    -1.054409     0.246960
Gh(H)      2.113393    -1.851888    -0.056301
Gh(H)      3.361367    -1.381693     0.744870
Gh(O)      0.402821    -2.381732    -1.341749
Gh(H)     -0.585953    -2.453448    -1.264600
Gh(H)      0.751084    -2.951825    -2.024247

units ang
no_reorient
no_com
symmetry c1
}

set {
basis        aug-cc-pVTZ
scf_type     df
}

energy("mp2")
