MEMORY 60 GB

molecule dimer {
1 1
K          0.000000     0.000000     0.000000
O          2.508782    -0.141844     0.410377
H          2.562458     0.762794     0.130963
H          3.441425    -0.376554     0.562283
O          1.412786    -1.432695    -1.957736
H          2.326943    -1.625764    -2.277906
H          0.935548    -2.250073    -1.821873
O         -1.020538     1.606119     1.754091
H         -1.273693     2.198824     1.035375
H         -0.603547     2.090252     2.409861
O         -1.392791    -1.909610     1.353410
H         -1.147644    -2.832730     1.686886
H         -2.369302    -1.909809     0.980002
O         -1.194174    -0.015023    -2.323203
H         -1.115379    -0.877981    -2.766013
H         -2.152801     0.190925    -2.210689

units ang
no_reorient
no_com
symmetry c1
}

set {
basis        aug-cc-pVTZ
scf_type     df
}

energy("mp2")
