MEMORY 60 GB

molecule dimer {
0 1
Gh(K)      0.000000     0.000000     0.000000
Gh(O)      1.752063    -1.955740    -0.896493
Gh(H)      2.693070    -2.147140    -1.012955
Gh(H)      1.399783    -2.564561    -0.243759
Gh(O)     -2.037636    -1.672138     0.117504
Gh(H)     -2.427489    -2.365114     0.675856
Gh(H)     -2.816892    -1.155028    -0.141307
Gh(O)      0.519565    -0.340148     2.890005
Gh(H)      0.272037     0.564577     2.764165
Gh(H)     -0.190010    -0.696801     3.468111
Gh(O)     -1.943971     1.609727     0.991987
Gh(H)     -2.039868     2.479130     0.578168
Gh(H)     -2.271273     1.714132     1.898834
O         -0.866082     1.453293    -2.302765
H         -0.118946     2.054102    -2.495125
H         -1.462586     2.104021    -1.901122

units ang
no_reorient
no_com
symmetry c1
}

set {
basis        aug-cc-pVTZ
scf_type     df
}

energy("mp2")
