MEMORY 60 GB

molecule dimer {
1 1
K          0.000000     0.000000     0.000000
O          1.998788    -1.892981    -1.275619
H          1.360295    -2.129853    -1.967743
H          2.785721    -1.689378    -1.859302
O         -2.305916    -0.575904    -1.423238
H         -2.524150    -0.535467    -2.347313
H         -1.974768    -1.476719    -1.203696
O         -1.216902     2.172280     0.900711
H         -1.602851     1.834558     1.691032
H         -0.956919     3.082716     1.081943
O          1.514527    -2.061471     1.508858
H          1.933106    -2.366114     0.691556
H          0.944965    -2.736547     1.833539
O          2.272850     0.840728     1.315721
H          2.977124     0.173544     1.188519
H          2.679249     1.703018     1.056976
O          0.901593     1.890982    -1.438276
H          1.107019     2.546113    -0.725155
H          0.579848     2.387877    -2.155061

units ang
no_reorient
no_com
symmetry c1
}

set {
basis        aug-cc-pVTZ
scf_type     df
}

energy("mp2")
