MEMORY 60 GB

molecule dimer {
0 1
Gh(K)      0.000000     0.000000     0.000000
Gh(O)      0.309615    -2.623382    -1.550755
Gh(H)      0.073529    -3.411695    -2.042004
Gh(H)      0.732044    -2.924054    -0.731434
Gh(O)     -2.529295     1.007717     0.149432
Gh(H)     -3.031134     1.319525    -0.599291
Gh(H)     -2.665484     0.041905     0.322961
O          1.728418     1.676356     0.611770
H          1.306700     2.209773     1.232986
H          2.018027     2.273752    -0.126886
Gh(O)      0.635505    -0.312124     2.701636
Gh(H)     -0.164451    -0.813360     3.054926
Gh(H)      0.947635     0.214693     3.417860
Gh(O)      0.007774     0.682534    -2.427733
Gh(H)     -0.877989     0.809481    -2.864264
Gh(H)      0.577915     0.435714    -3.144891

units ang
no_reorient
no_com
symmetry c1
}

set {
basis        aug-cc-pVTZ
scf_type     df
}

energy("mp2")
