MEMORY 60 GB

molecule dimer {
0 1
Gh(K)      0.000000     0.000000     0.000000
Gh(O)     -2.324873    -1.404209    -0.719175
Gh(H)     -2.508892    -2.382152    -0.757465
Gh(H)     -3.103411    -1.007604    -0.391341
O          0.928383    -2.282472     1.098452
H          1.810797    -2.654173     1.272065
H          0.418300    -2.312404     1.908116
Gh(O)      1.667709     2.265231     0.418502
Gh(H)      1.289449     2.964199     0.969759
Gh(H)      1.716548     2.696389    -0.446786

units ang
no_reorient
no_com
symmetry c1
}

set {
basis        aug-cc-pVTZ
scf_type     df
}

energy("mp2")
