MEMORY 60 GB

molecule dimer {
0 1
Gh(K)      0.000000     0.000000     0.000000
Gh(O)     -1.457044    -2.550395     0.407014
Gh(H)     -0.947257    -2.879841     1.151043
Gh(H)     -2.328321    -2.243661     0.699340
O          2.038414    -1.767961     0.341126
H          2.837008    -1.255039     0.326724
H          1.966681    -2.473380    -0.315675
Gh(O)     -1.661440     0.175056     1.991238
Gh(H)     -0.975522     0.765504     2.308795
Gh(H)     -2.384597     0.634620     1.603907
Gh(O)      1.704232     1.691653    -1.239466
Gh(H)      1.159358     2.227433    -1.799160
Gh(H)      1.823795     2.247273    -0.485218
Gh(O)     -1.743882     0.339578    -1.736908
Gh(H)     -2.201474    -0.503521    -1.987939
Gh(H)     -2.102341     0.953944    -2.383414

units ang
no_reorient
no_com
symmetry c1
}

set {
basis        aug-cc-pVTZ
scf_type     df
}

energy("mp2")
