MEMORY 60 GB

molecule dimer {
0 1
Gh(K)      0.000000     0.000000     0.000000
Gh(O)     -1.350579    -0.451019    -2.184171
Gh(H)     -0.828374    -0.405480    -2.959027
Gh(H)     -2.295838    -0.182448    -2.477727
Gh(O)      0.811714    -2.953770    -0.024877
Gh(H)      0.491865    -3.516386     0.715024
Gh(H)      1.703134    -3.259401    -0.070729
Gh(O)      1.439502    -0.931900     2.390588
Gh(H)      1.923833    -1.620427     2.861863
Gh(H)      0.879775    -0.561656     3.062076
Gh(O)      2.556752     0.575285    -0.926306
Gh(H)      2.963771     0.049734    -0.227753
Gh(H)      2.591393     1.523133    -0.691197
Gh(O)     -1.229385     2.374053     0.624562
Gh(H)     -0.903017     3.116669     1.152358
Gh(H)     -2.153941     2.270777     0.923160
O         -1.464224    -0.338413     2.131283
H         -1.017152    -0.390138     2.970331
H         -2.307745     0.086032     2.373066

units ang
no_reorient
no_com
symmetry c1
}

set {
basis        aug-cc-pVTZ
scf_type     df
}

energy("mp2")
