MEMORY 60 GB

molecule dimer {
1 1
K      0.000000     0.000000     0.000000
--
0 1
O     -1.343909    -1.211403     2.099413
H     -1.253672    -2.078427     2.385455
H     -1.877420    -0.648745     2.704831
O     -2.397561     1.590145     0.274651
H     -3.158315     1.280604    -0.227144
H     -2.022053     2.285837    -0.218265
O     -2.079589    -1.111467    -1.864902
H     -2.298458    -0.195653    -2.049554
H     -2.680979    -1.325544    -1.093268
O      1.264225     2.555430     0.500886
H      0.862716     3.053670    -0.127152
H      2.168458     2.917047     0.643229
O      0.684809    -2.567000     0.519199
H      0.206735    -2.757309     1.321443
H      0.308697    -3.187476    -0.135128
O      1.071392    -0.945498    -2.247692
H      1.750392    -1.483034    -1.804775
H      0.594835    -1.550044    -2.831515

units ang
no_reorient
no_com
symmetry c1
}

set {
basis        aug-cc-pVTZ
scf_type     df
}

energy("mp2", bsse_type="cp")
