MEMORY 60 GB

molecule dimer {
1 1
K          0.000000     0.000000     0.000000
O          2.160859     1.290133    -0.400753
H          1.851863     2.165893    -0.347882
H          2.858507     1.265871    -1.028996
O         -0.224116     2.890704    -0.587416
H          0.184621     3.724005    -0.298127
H         -0.628412     3.022379    -1.479339
O         -0.596279     0.293745     2.645164
H         -0.155475     0.327230     3.510654
H         -0.745470     1.203896     2.319434
O         -2.653038     0.116948    -0.474000
H         -3.072390     0.994919    -0.656688
H         -3.153251    -0.529245    -0.935285
O          0.199903    -1.131038    -2.302949
H          0.210418    -2.106909    -2.322390
H          1.094372    -1.077689    -2.576535
O          1.590735    -1.740659     0.686324
H          2.345406    -1.342599     1.136997
H          1.996290    -2.458499     0.178618

units ang
no_reorient
no_com
symmetry c1
}

set {
basis        aug-cc-pVTZ
scf_type     df
}

energy("mp2")
