MEMORY 60 GB

molecule dimer {
0 1
Gh(K)      0.000000     0.000000     0.000000
Gh(O)     -2.378824    -0.553695    -1.241651
Gh(H)     -2.664634     0.170642    -1.832911
Gh(H)     -3.267881    -0.958953    -1.026544
Gh(O)     -0.572456     1.699591    -1.947811
Gh(H)      0.254456     1.982503    -2.411827
Gh(H)     -1.309166     1.752655    -2.525546
Gh(O)      1.126668    -1.511622     1.935966
Gh(H)      0.956395    -2.429284     2.079445
Gh(H)      0.857351    -1.103993     2.793336
O         -1.604414     0.849184     2.083256
H         -2.481291     0.626327     1.722143
H         -1.459611     0.357911     2.901958

units ang
no_reorient
no_com
symmetry c1
}

set {
basis        aug-cc-pVTZ
scf_type     df
}

energy("mp2")
