MEMORY 60 GB

molecule dimer {
1 1
K          0.000000     0.000000     0.000000
O         -1.653313    -1.051616     1.936869
H         -2.526557    -0.873487     1.449054
H         -1.779450    -0.761161     2.807517
O         -2.044736    -1.095313    -1.390693
H         -2.246528    -2.079962    -1.231368
H         -2.476560    -0.777780    -2.210273
O         -0.390290     2.428068    -1.109074
H         -0.638411     2.714222    -0.228935
H         -0.928560     2.744767    -1.830555
O          2.661841    -0.753804    -0.332134
H          2.712180    -1.521938    -0.975578
H          3.496474    -0.827065     0.075169
O          0.849537     0.318983     2.782234
H          0.338813    -0.012639     3.567669
H          0.431354     1.159593     2.522927
O          0.745160    -1.502289    -2.481552
H          1.369940    -1.936199    -3.034574
H          0.164672    -2.234902    -2.237506

units ang
no_reorient
no_com
symmetry c1
}

set {
basis        aug-cc-pVTZ
scf_type     df
}

energy("mp2")
