MEMORY 60 GB

molecule dimer {
0 1
Gh(K)      0.000000     0.000000     0.000000
Gh(O)      2.014013    -0.279703    -1.888881
Gh(H)      3.005208    -0.295363    -1.835973
Gh(H)      1.699269     0.613752    -2.030273
Gh(O)      0.082691    -2.431143     0.831079
Gh(H)     -0.605822    -3.008170     1.093025
Gh(H)      0.806277    -2.617354     1.392155
Gh(O)      0.852450     2.369236    -1.112997
Gh(H)      0.649638     2.424980    -2.052198
Gh(H)      1.809668     2.651018    -1.046812
Gh(O)     -1.193213     1.995766     1.576577
Gh(H)     -2.103942     1.982930     1.219885
Gh(H)     -1.169090     2.215535     2.486101
Gh(O)      2.364288     0.103389     1.226266
Gh(H)      2.966756    -0.556210     0.863653
Gh(H)      2.914997     0.928049     1.020854
O         -1.864427    -0.250800    -2.008152
H         -1.879585     0.539119    -2.581299
H         -2.686209    -0.323600    -1.550985
Gh(O)     -2.311800    -0.876132     1.478322
Gh(H)     -2.741898    -0.025471     1.369603
Gh(H)     -2.307840    -0.999897     2.401276

units ang
no_reorient
no_com
symmetry c1
}

set {
basis        aug-cc-pVTZ
scf_type     df
}

energy("mp2")
