MEMORY 60 GB

molecule dimer {
1 1
K          0.000000     0.000000     0.000000
O          2.210706     1.169674     1.148820
H          2.542276     0.564502     1.883025
H          2.469189     2.058712     1.390268
O         -0.157161     0.568570    -2.648263
H          0.654664     1.115551    -2.877620
H         -0.061308    -0.316781    -3.128151
O          1.720062    -1.820533    -1.495334
H          1.720440    -2.330188    -2.342644
H          2.311599    -2.331956    -0.890084
O         -1.760100     1.823148     0.416399
H         -1.645011     2.388567     1.190595
H         -1.171767     2.247211    -0.232701
O          0.101240    -2.179944     1.333505
H         -0.422830    -2.543391     0.610743
H          1.012164    -2.546319     1.146336

units ang
no_reorient
no_com
symmetry c1
}

set {
basis        aug-cc-pVTZ
scf_type     df
}

energy("mp2")
