MEMORY 60 GB

molecule dimer {
1 1
K          0.000000     0.000000     0.000000
Gh(O)     -0.173319    -2.840391     0.867645
Gh(H)      0.361358    -3.018681     0.103750
Gh(H)      0.418315    -2.846524     1.610566
Gh(O)      2.897650    -0.409254     0.514190
Gh(H)      3.425469    -0.973584     1.091300
Gh(H)      3.301664     0.485390     0.727381
Gh(O)      0.932781     1.909151    -1.488458
Gh(H)      0.748588     2.219972    -2.358054
Gh(H)      1.394457     2.688798    -1.067496
Gh(O)      0.561714     0.650297     2.488368
Gh(H)      1.438825     0.343526     2.322741
Gh(H)     -0.011650    -0.078291     2.840390
Gh(O)     -1.989521     1.668299     0.915195
Gh(H)     -1.899444     2.314467     1.611632
Gh(H)     -2.406715     2.104578     0.181580
Gh(O)     -0.629671    -1.110605    -2.391014
Gh(H)     -0.994888    -2.016476    -2.229954
Gh(H)      0.034334    -1.219319    -3.116133

units ang
no_reorient
no_com
symmetry c1
}

set {
basis        aug-cc-pVTZ
scf_type     df
}

energy("mp2")
