MEMORY 60 GB

molecule dimer {
0 1
Gh(K)      0.000000     0.000000     0.000000
Gh(O)      0.612876    -1.115935    -2.349051
Gh(H)      0.426290    -1.552454    -3.196404
Gh(H)      1.249709    -1.726035    -1.997265
Gh(O)      0.226950    -1.309350     2.562510
Gh(H)      0.264022    -0.641943     3.257966
Gh(H)      1.068749    -1.730800     2.570162
Gh(O)     -2.056105     0.919747    -1.186773
Gh(H)     -2.198049     0.297455    -1.925318
Gh(H)     -2.809767     1.060828    -0.585807
O         -1.976233    -2.079701    -0.110673
H         -1.733104    -3.050987    -0.116702
H         -2.703697    -1.948167    -0.750612
Gh(O)      1.852186     1.592652     1.468527
Gh(H)      2.464721     2.245763     1.040167
Gh(H)      1.990939     1.633926     2.445297
Gh(O)      2.746451    -1.160995     0.084226
Gh(H)      3.055897    -0.685917    -0.671043
Gh(H)      3.443294    -1.731569     0.452839

units ang
no_reorient
no_com
symmetry c1
}

set {
basis        aug-cc-pVTZ
scf_type     df
}

energy("mp2")
