MEMORY 60 GB

molecule dimer {
0 1
Gh(K)      0.000000     0.000000     0.000000
Gh(O)      0.293827     2.618771    -0.398133
Gh(H)     -0.603386     2.977651    -0.383603
Gh(H)      0.504951     2.523150    -1.349400
O          2.290662    -1.154012     1.170513
H          2.200413    -1.828377     1.847435
H          2.800025    -0.449315     1.581926
Gh(O)     -0.679679    -1.715755     2.067459
Gh(H)      0.176766    -2.136211     2.260417
Gh(H)     -1.317277    -2.272083     1.599994
Gh(O)     -2.767030     0.221449     0.099673
Gh(H)     -3.057655     0.587440     0.925810
Gh(H)     -3.142942    -0.646895     0.189675

units ang
no_reorient
no_com
symmetry c1
}

set {
basis        aug-cc-pVTZ
scf_type     df
}

energy("mp2")
