MEMORY 60 GB

molecule dimer {
1 1
K      0.000000     0.000000     0.000000
--
0 1
O     -2.448527    -0.291095    -1.019181
H     -2.813473     0.376710    -0.455549
H     -2.996059    -1.063636    -0.906107
O     -0.359694    -2.647424     0.173385
H     -0.129317    -3.280336    -0.543745
H     -0.768006    -3.148797     0.926610
O      2.782323     0.361715    -0.387797
H      3.104084     1.127188     0.048438
H      3.129044    -0.410494     0.120079
O      1.143816     0.172493     2.326214
H      2.118111     0.190490     2.431222
H      0.790123    -0.238853     3.124352
O     -0.785943     2.820602    -0.803775
H     -1.653070     3.218136    -0.938106
H     -0.338429     3.318736    -0.088312

units ang
no_reorient
no_com
symmetry c1
}

set {
basis        aug-cc-pVTZ
scf_type     df
}

energy("mp2", bsse_type="cp")
