MEMORY 60 GB

molecule dimer {
1 1
K      0.000000     0.000000     0.000000
--
0 1
O     -0.884192     1.970622     1.647785
H     -1.347598     2.832663     1.776305
H     -0.910421     1.461029     2.511078
O      1.732463    -1.946278     1.003026
H      2.428694    -1.633923     0.375693
H      1.250224    -2.688478     0.576902
O      0.339742    -2.049983    -1.517259
H      1.255807    -1.951855    -1.805876
H     -0.043822    -2.742772    -2.064470
O     -2.568170    -0.255539     0.443239
H     -3.487635    -0.547337     0.522851
H     -2.411796     0.586593     0.985116
O     -1.514408     0.603461    -2.260019
H     -1.635852     0.242743    -3.138612
H     -1.484450     1.566521    -2.316759
O     -0.662160    -1.145485     2.641416
H      0.095372    -1.722406     2.715579
H     -1.429032    -1.705154     2.649019
O      2.172705     1.960527     0.162383
H      3.008128     2.179055    -0.195332
H      1.946524     2.806233     0.714730

units ang
no_reorient
no_com
symmetry c1
}

set {
basis        aug-cc-pVTZ
scf_type     df
}

energy("mp2", bsse_type="cp")
