MEMORY 60 GB

molecule dimer {
0 1
Gh(K)      0.000000     0.000000     0.000000
Gh(O)     -0.873977    -0.157326    -2.492460
Gh(H)     -1.740116    -0.052883    -2.878562
Gh(H)     -0.273500     0.375994    -3.026061
Gh(O)      2.608119     0.315616     0.527310
Gh(H)      3.312820    -0.307262     0.594493
Gh(H)      2.932642     0.856303    -0.199126
O          0.725977    -2.654096    -0.373484
H          1.317561    -2.978209    -1.023598
H         -0.110315    -3.095978    -0.542861
Gh(O)     -2.649027    -1.197370     0.324003
Gh(H)     -2.756447    -1.934451    -0.241219
Gh(H)     -2.755054    -1.440674     1.244298
Gh(O)     -1.038712     2.794023    -0.587160
Gh(H)     -1.259782     2.719630    -1.535356
Gh(H)     -1.840414     2.377449    -0.164631

units ang
no_reorient
no_com
symmetry c1
}

set {
basis        aug-cc-pVTZ
scf_type     df
}

energy("mp2")
