MEMORY 60 GB

molecule dimer {
0 1
Gh(K)      0.000000     0.000000     0.000000
O         -1.879920     2.131600     0.557926
H         -2.648079     2.548980     0.056049
H         -1.887437     2.455367     1.426203
Gh(O)      1.152182     1.581044    -1.769112
Gh(H)      1.909533     1.935900    -1.263555
Gh(H)      1.466093     1.448690    -2.624702
Gh(O)      0.223121    -2.711640     0.645294
Gh(H)      0.828753    -2.906869     1.403819
Gh(H)     -0.563140    -3.220153     0.851557
Gh(O)      1.524854     2.013421     1.098941
Gh(H)      1.225291     2.922636     1.209810
Gh(H)      2.238959     2.172119     0.523577
Gh(O)     -0.474255    -1.111893    -2.327802
Gh(H)     -1.177610    -1.416111    -2.945593
Gh(H)      0.329445    -1.642755    -2.406746
Gh(O)     -2.305451    -0.792312     1.710421
Gh(H)     -2.440067    -1.648183     2.196214
Gh(H)     -2.692466    -0.773457     0.838942

units ang
no_reorient
no_com
symmetry c1
}

set {
basis        aug-cc-pVTZ
scf_type     df
}

energy("mp2")
