MEMORY 60 GB

molecule dimer {
1 1
K      0.000000     0.000000     0.000000
--
0 1
O      0.614161    -2.662596    -1.000568
H     -0.113826    -3.251565    -1.198118
H      1.186112    -2.667876    -1.734079
O      0.729810     2.373837    -1.025151
H      1.167478     2.701220    -1.857432
H     -0.147525     2.842033    -0.995735
O     -1.008658     0.423253     2.460831
H     -0.735495    -0.358124     2.948601
H     -1.939879     0.354150     2.274018
O      2.850153    -0.237363     0.329338
H      3.197928    -1.122902     0.376841
H      3.494571     0.227443    -0.233883
O     -2.469746    -0.508728    -1.426203
H     -3.370408    -0.248234    -1.430514
H     -2.421727    -0.991925    -2.274776

units ang
no_reorient
no_com
symmetry c1
}

set {
basis        aug-cc-pVTZ
scf_type     df
}

energy("mp2", bsse_type="cp")
