MEMORY 60 GB

molecule dimer {
1 1
K      0.000000     0.000000     0.000000
--
0 1
O     -2.086159     0.979793     1.589776
H     -3.028814     0.766582     1.420076
H     -2.127653     1.886064     2.042990
O      0.522655     2.710535    -1.289778
H      0.985976     3.405292    -0.819517
H      1.081618     2.477180    -2.000586
O      2.168619     1.148467     1.439584
H      3.065140     0.771014     1.316407
H      2.175125     2.118851     1.463488
O     -0.693986    -0.163464    -2.667068
H     -1.335091    -0.843039    -2.905198
H     -0.999391     0.564417    -3.233427
O     -1.675477    -1.828136     0.355903
H     -2.093235    -2.067337    -0.492620
H     -1.684285    -2.549478     0.982289

units ang
no_reorient
no_com
symmetry c1
}

set {
basis        aug-cc-pVTZ
scf_type     df
}

energy("mp2", bsse_type="cp")
