MEMORY 60 GB

molecule dimer {
0 1
Gh(K)      0.000000     0.000000     0.000000
Gh(O)      0.934950     1.557658     1.866682
Gh(H)      1.223641     2.403238     1.526633
Gh(H)      1.560546     1.275463     2.571452
Gh(O)     -0.413699    -2.204341    -1.603818
Gh(H)     -1.436891    -2.151326    -1.552654
Gh(H)     -0.309238    -2.351733    -2.534913
O          2.387388    -0.706598     0.434979
H          3.112159    -1.260928     0.324550
H          2.611801    -0.158530     1.180506
Gh(O)     -2.888982    -0.504542     0.112087
Gh(H)     -3.193254    -0.834635     0.984426
Gh(H)     -3.583834     0.130394    -0.063180
Gh(O)      2.029999     0.579035    -1.935349
Gh(H)      2.782212     0.571319    -1.253322
Gh(H)      2.354613     1.285694    -2.436344
Gh(O)     -0.653789    -1.945918     2.055554
Gh(H)     -0.923902    -1.843674     2.940345
Gh(H)     -1.151574    -2.735000     1.778164

units ang
no_reorient
no_com
symmetry c1
}

set {
basis        aug-cc-pVTZ
scf_type     df
}

energy("mp2")
