MEMORY 60 GB

molecule dimer {
0 1
Gh(K)      0.000000     0.000000     0.000000
Gh(O)     -1.265699    -2.742015    -0.100037
Gh(H)     -2.179241    -2.698658     0.327361
Gh(H)     -1.419350    -2.792292    -1.054146
Gh(O)      1.272599    -1.329958     1.835236
Gh(H)      1.045544    -2.218621     1.644981
Gh(H)      1.990525    -1.335279     2.504667
O         -2.112318     0.381367     2.020921
H         -3.046245     0.751485     2.160738
H         -1.624816     1.165296     2.260813
Gh(O)      0.975616     1.537608    -2.344587
Gh(H)      1.718704     1.125633    -2.807348
Gh(H)      1.478579     2.238025    -1.771565
Gh(O)     -2.703279     0.101022    -1.389176
Gh(H)     -3.313767     0.118266    -0.654596
Gh(H)     -2.877541     0.906785    -1.885854
Gh(O)      1.701775    -1.458525    -1.511955
Gh(H)      1.521016    -2.311011    -1.145006
Gh(H)      1.247312    -1.424578    -2.334159

units ang
no_reorient
no_com
symmetry c1
}

set {
basis        aug-cc-pVTZ
scf_type     df
}

energy("mp2")
