MEMORY 60 GB

molecule dimer {
1 1
K          0.000000     0.000000     0.000000
O          0.798245    -2.673232     0.586516
H          1.259072    -3.227763    -0.050608
H          1.531752    -2.180835     0.924560
O          1.063720    -0.518108     2.608119
H          1.747934    -1.086894     2.959635
H          0.362801    -0.538207     3.240479
O         -0.749147     2.531063     1.106211
H         -1.357034     2.493353     1.855151
H         -0.245091     3.336779     1.345826
O         -0.978931     1.576870    -1.879881
H         -0.514846     1.896055    -2.647649
H         -1.625313     0.989072    -2.202663

units ang
no_reorient
no_com
symmetry c1
}

set {
basis        aug-cc-pVTZ
scf_type     df
}

energy("mp2")
