MEMORY 60 GB

molecule dimer {
1 1
K          0.000000     0.000000     0.000000
Gh(O)      0.118696    -2.770459     0.076879
Gh(H)     -0.333969    -3.135341     0.830822
Gh(H)      0.982084    -3.221411     0.111931
Gh(O)      1.379726    -1.154328    -2.080253
Gh(H)      2.056706    -1.833961    -2.058727
Gh(H)      1.169543    -1.009891    -3.018870
Gh(O)      2.724284     0.265425     0.841619
Gh(H)      3.242030     1.067792     0.900161
Gh(H)      2.990826    -0.377309     1.498758
Gh(O)     -2.881305     0.223588     0.845452
Gh(H)     -3.728837     0.040709     1.280940
Gh(H)     -2.877352     1.133782     1.077537
Gh(O)      0.197582     1.855176     2.126719
Gh(H)     -0.684460     2.355019     2.158041
Gh(H)      0.495535     1.708267     3.013621
Gh(O)     -1.133798     2.421734    -1.164227
Gh(H)     -0.805925     2.041723    -2.060813
Gh(H)     -2.117470     2.513113    -1.178015

units ang
no_reorient
no_com
symmetry c1
}

set {
basis        aug-cc-pVTZ
scf_type     df
}

energy("mp2")
