MEMORY 60 GB

molecule dimer {
1 1
K          0.000000     0.000000     0.000000
Gh(O)      1.071555     0.954094    -2.190576
Gh(H)      0.988044     0.627626    -3.082246
Gh(H)      2.033843     1.175330    -2.123700
Gh(O)      0.274950    -2.378870     1.386517
Gh(H)      1.061758    -2.885643     1.678485
Gh(H)     -0.286488    -2.176641     2.185497
Gh(O)     -2.600308    -0.631598     1.158703
Gh(H)     -3.127240     0.272988     1.162722
Gh(H)     -3.320091    -1.304406     1.282020
Gh(O)      1.663337     0.245190     1.974484
Gh(H)      1.864456    -0.680749     1.983483
Gh(H)      0.980603     0.492300     2.612029
Gh(O)     -1.135864     2.411578    -0.478100
Gh(H)     -1.659332     3.079461    -0.022507
Gh(H)     -0.274050     2.843524    -0.678120

units ang
no_reorient
no_com
symmetry c1
}

set {
basis        aug-cc-pVTZ
scf_type     df
}

energy("mp2")
