MEMORY 60 GB

molecule dimer {
0 1
Gh(K)      0.000000     0.000000     0.000000
O          1.395321     2.485796    -0.499111
H          0.475724     2.530364    -0.908150
H          1.541025     3.296659     0.059292
Gh(O)     -0.298366     0.277828    -2.884288
Gh(H)     -1.052425    -0.252557    -3.266455
Gh(H)     -0.007761     0.938512    -3.499209
Gh(O)     -0.844454     0.705415     2.485358
Gh(H)     -0.439561     1.442536     2.982417
Gh(H)     -0.765232    -0.044769     3.073039
Gh(O)      2.206718    -0.416213    -1.515557
Gh(H)      2.624132    -1.306624    -1.434775
Gh(H)      1.710832    -0.523339    -2.322752
Gh(O)      2.287985     0.406779     1.536207
Gh(H)      1.848703     0.878967     2.243779
Gh(H)      2.356853     1.050663     0.803187
Gh(O)     -0.926946    -2.528131    -0.885140
Gh(H)     -0.638585    -2.814555    -0.002462
Gh(H)     -0.175227    -2.863224    -1.473137
Gh(O)     -2.524902     0.657056     0.276186
Gh(H)     -2.345141     0.830225     1.144007
Gh(H)     -3.348189     0.216696     0.083786

units ang
no_reorient
no_com
symmetry c1
}

set {
basis        aug-cc-pVTZ
scf_type     df
}

energy("mp2")
