MEMORY 60 GB

molecule dimer {
0 1
Gh(K)      0.000000     0.000000     0.000000
Gh(O)      0.381547    -2.552558    -1.504867
Gh(H)      1.305011    -2.508122    -1.562112
Gh(H)      0.195752    -3.068888    -0.743103
Gh(O)     -2.152753    -1.918638    -0.513085
Gh(H)     -3.032715    -1.893013    -0.107358
Gh(H)     -2.129564    -2.762877    -0.889215
Gh(O)      1.881209    -1.325987     1.692441
Gh(H)      2.801171    -1.317073     1.472737
Gh(H)      1.822881    -1.212799     2.637718
Gh(O)     -0.856008     2.370718     1.286842
Gh(H)     -1.091753     2.561565     2.221772
Gh(H)     -0.547518     3.153373     0.860940
O         -0.195392     1.168538    -2.406268
H          0.427603     1.930953    -2.467495
H         -0.179593     0.694044    -3.196332

units ang
no_reorient
no_com
symmetry c1
}

set {
basis        aug-cc-pVTZ
scf_type     df
}

energy("mp2")
