MEMORY 60 GB

molecule dimer {
1 1
K          0.000000     0.000000     0.000000
O         -1.751492     0.085286    -1.989283
H         -1.556526     0.778721    -2.629799
H         -1.639405    -0.746256    -2.499389
O         -0.439277    -2.706628    -0.360941
H         -1.377830    -2.874844    -0.351162
H         -0.096285    -3.290016    -1.091408
O         -2.197605     0.631860     1.800529
H         -2.346144     1.016197     2.672356
H         -2.828298     0.855687     1.124615
O          0.383901     2.589354    -0.816677
H         -0.469103     3.021654    -0.740717
H          0.553527     2.490907    -1.733209
O          2.031074     0.400515    -2.119651
H          2.592574     1.107034    -1.763625
H          1.716904     0.550642    -2.989750
O          0.043549    -1.038957     2.817828
H         -0.779009    -0.692394     3.128335
H          0.717995    -0.476349     3.113344

units ang
no_reorient
no_com
symmetry c1
}

set {
basis        aug-cc-pVTZ
scf_type     df
}

energy("mp2")
