MEMORY 60 GB

molecule dimer {
1 1
K      0.000000     0.000000     0.000000
--
0 1
O      0.049226     2.701947    -1.155143
H     -0.920606     2.740287    -1.218459
H      0.456142     2.515712    -2.012420
O     -1.447501    -0.454706     2.173556
H     -1.986228    -1.035711     1.657750
H     -1.199479    -0.982340     2.918186
O      0.653369    -2.372660     1.490410
H      0.618963    -2.151815     2.431321
H      0.120151    -3.194488     1.363670
O     -2.496333    -0.502934    -0.545027
H     -2.174543    -1.006544    -1.289153
H     -2.868617     0.221761    -1.038251
O      1.045807    -0.664263    -2.649852
H      0.737206    -0.257818    -3.449876
H      1.018814    -1.657837    -2.920530
O      1.773374     1.100513     1.657986
H      2.390244     1.790927     1.817412
H      1.689360     0.544883     2.439841

units ang
no_reorient
no_com
symmetry c1
}

set {
basis        aug-cc-pVTZ
scf_type     df
}

energy("mp2", bsse_type="cp")
