MEMORY 60 GB

molecule dimer {
0 1
Gh(K)      0.000000     0.000000     0.000000
O          2.647151     0.635208    -0.063948
H          3.176416     0.412019    -0.876904
H          2.688399     1.610574    -0.061644
Gh(O)     -0.552549     2.635117    -0.327416
Gh(H)     -1.025355     2.455382    -1.183466
Gh(H)      0.041728     3.368381    -0.523783
Gh(O)      0.103987    -2.445141    -1.042328
Gh(H)      0.471228    -3.061895    -1.668102
Gh(H)     -0.831370    -2.576863    -0.923120
Gh(O)     -0.166398    -1.185570     2.324774
Gh(H)      0.376489    -1.802467     2.829484
Gh(H)     -0.728296    -0.765177     2.958806
Gh(O)      0.808663     0.043536    -2.584883
Gh(H)      0.577317    -0.776855    -3.083703
Gh(H)      1.748074     0.235442    -2.782063

units ang
no_reorient
no_com
symmetry c1
}

set {
basis        aug-cc-pVTZ
scf_type     df
}

energy("mp2")
