MEMORY 60 GB

molecule dimer {
1 1
K      0.000000     0.000000     0.000000
--
0 1
O     -0.015696    -0.345584    -2.941205
H      0.515652    -0.599405    -3.713110
H     -0.673237     0.300386    -3.283334
O     -2.446947    -1.823863     0.179839
H     -2.158831    -2.714217     0.379934
H     -2.806161    -1.416264     1.005551
O      2.301395     1.583890     1.081324
H      1.387959     1.838924     0.873685
H      2.218707     0.954213     1.825131
O      2.051371    -1.795200    -0.845859
H      2.285042    -2.269202    -0.005706
H      2.857258    -1.807046    -1.325303
O      1.560729     1.646549    -1.959294
H      1.936631     0.802346    -2.208848
H      2.350103     2.037956    -1.650044

units ang
no_reorient
no_com
symmetry c1
}

set {
basis        aug-cc-pVTZ
scf_type     df
}

energy("mp2", bsse_type="cp")
