MEMORY 60 GB

molecule dimer {
0 1
Gh(K)      0.000000     0.000000     0.000000
O          1.420878    -0.711211     2.184934
H          1.736688    -0.202833     2.919371
H          1.868927    -1.577892     2.226855
Gh(O)     -1.598928     0.560235    -2.419403
Gh(H)     -1.365736    -0.118708    -3.123021
Gh(H)     -1.346237     1.399038    -2.845520
Gh(O)     -1.131301    -2.523257     0.183596
Gh(H)     -1.987351    -3.054599     0.383189
Gh(H)     -0.368094    -3.072588     0.451747
Gh(O)      1.518076     2.324623    -0.594473
Gh(H)      2.305331     2.111401    -0.053256
Gh(H)      1.802919     2.957861    -1.298562
Gh(O)     -2.049095     1.423091     0.741955
Gh(H)     -2.503284     1.989797     0.085011
Gh(H)     -2.823126     0.947412     1.182702
Gh(O)      2.220787    -1.004945    -1.229033
Gh(H)      2.829877    -1.684268    -1.114338
Gh(H)      2.221823    -0.766439    -2.173954

units ang
no_reorient
no_com
symmetry c1
}

set {
basis        aug-cc-pVTZ
scf_type     df
}

energy("mp2")
