MEMORY 60 GB

molecule dimer {
0 1
Gh(K)      0.000000     0.000000     0.000000
Gh(O)     -1.080651     0.306429     2.551299
Gh(H)     -1.823175     0.297793     3.180353
Gh(H)     -0.354899     0.660309     3.103492
O          2.278387    -0.702459    -1.607685
H          2.138970    -0.719093    -2.593983
H          3.142648    -0.207233    -1.591648
Gh(O)      0.117076     1.812209    -2.183024
Gh(H)      0.976217     1.536841    -2.563700
Gh(H)      0.141175     2.783659    -2.179207
Gh(O)     -0.797458     2.800333     0.664685
Gh(H)     -1.133208     2.542766     1.514255
Gh(H)      0.012475     3.272720     0.925054
Gh(O)      0.106479    -2.530132     1.323326
Gh(H)      0.105693    -2.479833     2.282568
Gh(H)      0.086604    -3.458505     1.108124

units ang
no_reorient
no_com
symmetry c1
}

set {
basis        aug-cc-pVTZ
scf_type     df
}

energy("mp2")
