MEMORY 60 GB

molecule dimer {
1 1
K      0.000000     0.000000     0.000000
--
0 1
O     -1.914219     0.381099     2.047352
H     -1.320578     0.674184     2.686368
H     -2.321467    -0.319664     2.513747
O      0.428472     2.036835    -1.419653
H     -0.185122     2.755299    -1.648266
H      0.372818     1.517892    -2.257890
O      0.770031     1.249993     2.200665
H      1.009133     2.175197     2.337599
H      1.515479     0.726860     2.473995
O     -2.260178    -0.231462    -1.572764
H     -2.803882    -0.985370    -1.417875
H     -2.627539     0.547665    -1.165198
O      2.290299    -1.266372     0.334224
H      3.155079    -0.865329     0.373528
H      2.386314    -2.179876     0.539797
O     -1.344210    -2.412788     0.379287
H     -2.112438    -2.800330    -0.114885
H     -1.698340    -2.036621     1.151405

units ang
no_reorient
no_com
symmetry c1
}

set {
basis        aug-cc-pVTZ
scf_type     df
}

energy("mp2", bsse_type="cp")
