MEMORY 60 GB

molecule dimer {
0 1
Gh(K)      0.000000     0.000000     0.000000
O         -0.765719     1.087653     2.167467
H         -0.366710     0.618826     2.934654
H         -0.375078     1.956726     2.261313
Gh(O)      0.783235     0.249805    -2.652016
Gh(H)      0.810836     1.128177    -3.198673
Gh(H)      1.673506    -0.176047    -2.638363
Gh(O)      1.949027     1.313741     0.855188
Gh(H)      2.577772     1.693311     0.164076
Gh(H)      1.560359     2.078643     1.367190
Gh(O)     -1.376289    -2.236190     1.521680
Gh(H)     -1.917950    -2.202670     2.374185
Gh(H)     -1.844766    -2.998636     1.080903
Gh(O)     -1.599232     1.945142    -1.540209
Gh(H)     -0.917197     2.521554    -1.161089
Gh(H)     -1.775862     2.352459    -2.354892

units ang
no_reorient
no_com
symmetry c1
}

set {
basis        aug-cc-pVTZ
scf_type     df
}

energy("mp2")
