MEMORY 60 GB

molecule dimer {
0 1
Gh(K)      0.000000     0.000000     0.000000
Gh(O)      1.886407     0.240145     1.661583
Gh(H)      1.920610    -0.405878     2.387775
Gh(H)      2.353759     1.017833     1.991534
O         -0.633228    -1.707611     2.107517
H         -1.150731    -2.494049     1.810318
H          0.219587    -1.976046     2.382454
Gh(O)     -2.383593     0.511145    -0.855188
Gh(H)     -2.763257     1.011932    -0.148038
Gh(H)     -3.173879     0.141298    -1.269293
Gh(O)     -0.850357    -2.107687    -1.303976
Gh(H)     -1.442063    -2.761127    -0.786684
Gh(H)     -0.824084    -2.400965    -2.266133

units ang
no_reorient
no_com
symmetry c1
}

set {
basis        aug-cc-pVTZ
scf_type     df
}

energy("mp2")
