MEMORY 60 GB

molecule dimer {
1 1
K      0.000000     0.000000     0.000000
--
0 1
O      1.049228    -1.669034    -1.809341
H      0.923341    -2.503424    -2.246637
H      1.822074    -1.314072    -2.217799
O      0.777158     2.541027     1.485150
H     -0.123721     2.501866     1.834386
H      1.422271     2.295998     2.224463
O     -1.106748    -2.271704     0.894727
H     -1.448829    -2.837095     0.154476
H     -1.856099    -1.950414     1.369169
O     -2.252317     0.862623    -0.772996
H     -2.036068     1.820633    -0.928033
H     -2.394966     0.348962    -1.611608
O      0.750638     2.227854    -1.391270
H      0.979748     2.389688    -2.328740
H      1.502881     2.481555    -0.734025
O     -0.867467    -0.146222     2.839508
H     -1.441843    -0.931366     3.114854
H     -0.010479    -0.244914     3.268704

units ang
no_reorient
no_com
symmetry c1
}

set {
basis        aug-cc-pVTZ
scf_type     df
}

energy("mp2", bsse_type="cp")
