MEMORY 60 GB

molecule dimer {
0 1
Gh(K)      0.000000     0.000000     0.000000
Gh(O)     -2.443974    -0.924940    -0.753874
Gh(H)     -2.879080    -0.982845    -1.566392
Gh(H)     -3.075308    -0.759627    -0.078308
O          2.258221     2.031931    -0.252422
H          3.160911     2.340982    -0.304247
H          1.773997     2.842941    -0.220350
Gh(O)      0.816379    -1.772428    -1.854739
Gh(H)      0.355731    -1.803103    -2.682501
Gh(H)      1.790593    -1.660283    -2.009260
Gh(O)      0.385784    -2.386352     1.285565
Gh(H)     -0.034250    -3.134856     0.744614
Gh(H)     -0.166993    -2.412580     2.018828
Gh(O)      0.888475     0.436632     2.558956
Gh(H)      0.580862     0.364340     3.467400
Gh(H)      1.708919     0.935211     2.674296

units ang
no_reorient
no_com
symmetry c1
}

set {
basis        aug-cc-pVTZ
scf_type     df
}

energy("mp2")
