MEMORY 60 GB

molecule dimer {
0 1
Gh(K)      0.000000     0.000000     0.000000
Gh(O)      0.957190    -1.386757     2.254317
Gh(H)      0.346314    -1.538227     2.944648
Gh(H)      1.508477    -0.680100     2.530417
Gh(O)     -1.972321    -1.892141    -0.455348
Gh(H)     -2.386838    -1.108573    -0.921557
Gh(H)     -1.959596    -2.685029    -1.112345
O          2.214048     1.192468     0.500912
H          2.674099     0.872921     1.259207
H          2.802115     1.115706    -0.234481
Gh(O)     -1.570407     1.521695    -1.522003
Gh(H)     -2.540405     1.534752    -1.445713
Gh(H)     -1.376556     1.601288    -2.489818
Gh(O)      1.131955    -1.268921    -1.784459
Gh(H)      1.698719    -1.777535    -1.212553
Gh(H)      1.705790    -0.723363    -2.309643

units ang
no_reorient
no_com
symmetry c1
}

set {
basis        aug-cc-pVTZ
scf_type     df
}

energy("mp2")
