MEMORY 60 GB

molecule dimer {
1 1
K          0.000000     0.000000     0.000000
O          1.071555     0.954094    -2.190576
H          0.988044     0.627626    -3.082246
H          2.033843     1.175330    -2.123700
O          0.274950    -2.378870     1.386517
H          1.061758    -2.885643     1.678485
H         -0.286488    -2.176641     2.185497
O         -2.600308    -0.631598     1.158703
H         -3.127240     0.272988     1.162722
H         -3.320091    -1.304406     1.282020
O          1.663337     0.245190     1.974484
H          1.864456    -0.680749     1.983483
H          0.980603     0.492300     2.612029
O         -1.135864     2.411578    -0.478100
H         -1.659332     3.079461    -0.022507
H         -0.274050     2.843524    -0.678120

units ang
no_reorient
no_com
symmetry c1
}

set {
basis        aug-cc-pVTZ
scf_type     df
}

energy("mp2")
