MEMORY 60 GB

molecule dimer {
1 1
K      0.000000     0.000000     0.000000
--
0 1
O     -1.370696     1.604479    -1.550439
H     -2.076934     1.905007    -1.017557
H     -1.553716     1.524466    -2.505073
O     -1.998737    -0.974662     1.599881
H     -2.513349    -0.187129     1.508550
H     -2.107385    -1.288235     2.520883
O      1.577216    -0.657159     1.925838
H      1.513681    -0.094488     2.713468
H      2.523881    -0.722081     1.667496
O     -0.990708    -1.602974    -1.918941
H     -0.942529    -2.440920    -1.500342
H     -0.185141    -1.605642    -2.464998
O      0.436480     2.229228     1.505701
H      0.369638     3.148405     1.178374
H      1.255062     2.186885     2.041814
O      2.765894     0.729757    -0.577149
H      3.109093     1.422939    -1.184852
H      2.919337     1.046345     0.333290

units ang
no_reorient
no_com
symmetry c1
}

set {
basis        aug-cc-pVTZ
scf_type     df
}

energy("mp2", bsse_type="cp")
