MEMORY 60 GB

molecule dimer {
0 1
Gh(K)      0.000000     0.000000     0.000000
Gh(O)     -2.137032    -0.856625     1.512180
Gh(H)     -1.868986    -0.256897     2.167979
Gh(H)     -2.239988    -1.648355     2.041290
Gh(O)      2.175127     1.925803    -0.413797
Gh(H)      1.709840     2.569824    -0.952341
Gh(H)      2.889234     1.626517    -1.020393
O          0.141167     0.967816     2.459987
H         -0.589109     1.582427     2.558548
H          0.912326     1.572431     2.509376
Gh(O)     -1.688514     1.833831    -0.432819
Gh(H)     -2.264011     1.940198     0.309424
Gh(H)     -2.154571     1.891732    -1.244451
Gh(O)      1.446652    -0.632454    -2.619546
Gh(H)      2.280514    -0.166052    -2.786880
Gh(H)      1.538590    -1.544524    -2.934943
Gh(O)      2.182475    -1.748894     0.845704
Gh(H)      2.180246    -2.541209     0.250924
Gh(H)      2.896339    -1.190755     0.512360

units ang
no_reorient
no_com
symmetry c1
}

set {
basis        aug-cc-pVTZ
scf_type     df
}

energy("mp2")
