MEMORY 60 GB

molecule dimer {
1 1
K          0.000000     0.000000     0.000000
Gh(O)     -1.761971     1.679819    -1.384796
Gh(H)     -1.993530     1.859311    -2.310131
Gh(H)     -1.491064     2.551322    -1.061033
Gh(O)     -1.934913    -2.329125     0.427012
Gh(H)     -2.429676    -2.843944    -0.200316
Gh(H)     -2.478147    -1.527226     0.550138
Gh(O)     -0.769395    -1.744512    -2.140743
Gh(H)     -0.280499    -2.412102    -1.484121
Gh(H)     -1.513491    -2.237356    -2.422087
Gh(O)      0.163245     3.037506     0.036371
Gh(H)      0.343344     3.833379    -0.472962
Gh(H)      0.088329     3.252112     0.940310
Gh(O)      2.337800     1.279403    -0.997110
Gh(H)      2.614134     2.061165    -0.590317
Gh(H)      1.747208     1.653313    -1.667772
Gh(O)      0.977425    -0.442696     2.492052
Gh(H)      1.859603    -0.903416     2.580845
Gh(H)      0.477952    -0.770092     3.245807

units ang
no_reorient
no_com
symmetry c1
}

set {
basis        aug-cc-pVTZ
scf_type     df
}

energy("mp2")
