MEMORY 60 GB

molecule dimer {
1 1
K      0.000000     0.000000     0.000000
--
0 1
O      1.478006     0.717897    -1.948128
H      1.494997     0.601610    -2.908738
H      2.334047     1.201082    -1.842671
O     -2.661762     0.783294    -0.605565
H     -3.465178     1.092006    -0.190818
H     -2.885772     0.543165    -1.519228
O     -0.002906     2.840525    -0.171305
H     -0.856087     3.028844    -0.630236
H      0.477889     3.665808    -0.151625

units ang
no_reorient
no_com
symmetry c1
}

set {
basis        aug-cc-pVTZ
scf_type     df
}

energy("mp2", bsse_type="cp")
