MEMORY 60 GB

molecule dimer {
0 1
Gh(K)      0.000000     0.000000     0.000000
Gh(O)     -0.158022     2.608578     1.147004
Gh(H)      0.778541     2.831193     1.130168
Gh(H)     -0.228366     2.308447     2.057572
Gh(O)     -1.767346    -2.230905    -0.785771
Gh(H)     -2.087801    -2.169927    -1.696826
Gh(H)     -2.527003    -2.096316    -0.221399
Gh(O)      1.439540    -2.376480     1.228611
Gh(H)      1.067889    -2.424152     2.106189
Gh(H)      1.986049    -1.618527     1.188671
Gh(O)     -1.986305     0.233870     1.438597
Gh(H)     -1.622188     0.473677     2.306353
Gh(H)     -2.457775    -0.572894     1.536495
O          2.680467     0.114131     1.167824
H          3.575436    -0.195890     1.157789
H          2.770527     1.065655     1.118983
Gh(O)      1.234135    -0.006082    -2.458831
Gh(H)      1.742476     0.690149    -2.804107
Gh(H)      0.474861     0.027884    -3.034969

units ang
no_reorient
no_com
symmetry c1
}

set {
basis        aug-cc-pVTZ
scf_type     df
}

energy("mp2")
