MEMORY 60 GB

molecule dimer {
1 1
K          0.000000     0.000000     0.000000
Gh(O)     -2.673776     0.948720     0.824417
Gh(H)     -3.167263     0.143970     0.942318
Gh(H)     -3.136901     1.459363     0.150868
Gh(O)      0.110920     1.957449     2.167223
Gh(H)      1.097248     2.052670     2.037989
Gh(H)     -0.141234     1.268912     2.776564
Gh(O)      1.687577    -1.962600     0.509768
Gh(H)      1.167472    -2.750807     0.847882
Gh(H)      2.480538    -2.345650     0.073359
Gh(O)     -0.890535    -1.759466    -2.025758
Gh(H)     -0.401801    -2.629097    -1.882489
Gh(H)     -1.631369    -1.780708    -1.454003
Gh(O)     -0.772890     1.155494    -2.301149
Gh(H)     -0.888182     0.209431    -2.448873
Gh(H)     -1.511275     1.637928    -2.717803

units ang
no_reorient
no_com
symmetry c1
}

set {
basis        aug-cc-pVTZ
scf_type     df
}

energy("mp2")
