MEMORY 60 GB

molecule dimer {
0 1
Gh(K)      0.000000     0.000000     0.000000
Gh(O)      0.704593     2.672626    -0.531703
Gh(H)      0.790074     2.936738     0.376140
Gh(H)      1.317312     3.212929    -0.980840
Gh(O)     -1.197713    -1.859512    -1.372910
Gh(H)     -2.150333    -1.931130    -1.386109
Gh(H)     -0.850128    -2.373238    -2.128254
Gh(O)      1.635817    -0.907089     2.354190
Gh(H)      1.210872    -0.164479     2.804010
Gh(H)      1.161959    -1.673206     2.621161
Gh(O)     -2.270673     1.300048     0.691387
Gh(H)     -2.299473     2.002233     0.085889
Gh(H)     -3.090296     0.843730     0.534633
O         -1.272935     0.782182    -2.104475
H         -2.212545     0.909979    -2.084347
H         -1.080709     0.099361    -2.764455
Gh(O)     -1.284125    -1.361771     2.068460
Gh(H)     -2.157382    -1.391156     1.631680
Gh(H)     -0.988509    -2.220408     2.362835
Gh(O)      2.443972    -0.416390    -1.317300
Gh(H)      3.116986    -1.065802    -1.491835
Gh(H)      2.085578    -0.177653    -2.185105

units ang
no_reorient
no_com
symmetry c1
}

set {
basis        aug-cc-pVTZ
scf_type     df
}

energy("mp2")
