MEMORY 60 GB

molecule dimer {
1 1
K      0.000000     0.000000     0.000000
--
0 1
O     -1.079975    -2.519084    -1.114293
H     -1.161689    -2.449086    -2.142292
H     -0.354682    -3.093749    -0.915162
O      1.908494     1.199004     1.428095
H      1.949247     2.134957     1.646687
H      2.266614     0.791491     2.173180
O      1.456059     1.407035    -1.667662
H      2.234873     1.586585    -1.148718
H      1.247923     2.161680    -2.201385
O      2.223638    -1.618894    -0.002776
H      2.648935    -1.081482     0.723639
H      2.271674    -2.530630     0.297885
O     -2.357044     0.556742    -0.791296
H     -2.362310     1.515093    -0.520705
H     -2.704638     0.650218    -1.700959
O     -1.360042    -0.673605     2.109571
H     -2.212517    -0.566043     1.680662
H     -1.415840    -1.458593     2.705608

units ang
no_reorient
no_com
symmetry c1
}

set {
basis        aug-cc-pVTZ
scf_type     df
}

energy("mp2", bsse_type="cp")
