MEMORY 60 GB

molecule dimer {
1 1
K      0.000000     0.000000     0.000000
--
0 1
O      2.308722    -0.254536     1.310408
H      2.584958    -1.137932     1.023431
H      3.054955     0.265354     1.083425
O      1.477763     2.323870     0.122954
H      2.452408     2.371039     0.056186
H      1.158784     2.999385    -0.587734
O     -1.887495     0.324605     2.201958
H     -2.756344     0.421092     1.806993
H     -1.987178     0.245204     3.192100
O     -1.051549    -2.482539     0.576865
H     -1.834601    -2.706293     0.062762
H     -0.429524    -3.204685     0.325775
O     -2.479303     0.827493    -1.047506
H     -2.128857     1.517229    -1.644836
H     -3.035895     1.330859    -0.414268
O      0.867083    -1.961681    -1.538513
H      1.235278    -2.602121    -0.912217
H      1.575310    -2.005697    -2.206580

units ang
no_reorient
no_com
symmetry c1
}

set {
basis        aug-cc-pVTZ
scf_type     df
}

energy("mp2", bsse_type="cp")
