MEMORY 60 GB

molecule dimer {
0 1
Gh(K)      0.000000     0.000000     0.000000
Gh(O)     -0.783516    -1.726652    -2.324142
Gh(H)     -0.445420    -2.452607    -2.906614
Gh(H)     -1.685040    -1.971929    -2.112103
Gh(O)     -1.927039     1.937313     0.043663
Gh(H)     -2.389142     2.022854    -0.811322
Gh(H)     -2.517278     1.567321     0.684851
Gh(O)     -2.525078    -0.395205     1.459688
Gh(H)     -3.459078    -0.500987     1.132919
Gh(H)     -2.571024    -0.259444     2.424365
Gh(O)      0.460553     2.520123    -1.287438
Gh(H)      0.400227     3.147385    -0.553485
Gh(H)     -0.048493     2.950684    -2.000751
Gh(O)      2.234484    -1.510392    -1.101739
Gh(H)      2.294983    -2.389683    -1.472288
Gh(H)      3.130234    -1.125978    -1.166978
Gh(O)      0.616844     0.643018     2.586690
Gh(H)      1.504879     1.005239     2.404662
Gh(H)      0.025962     1.431530     2.685422
O         -0.281188    -2.832605     0.143332
H          0.444960    -3.141684    -0.384431
H         -1.165527    -3.190720    -0.205701

units ang
no_reorient
no_com
symmetry c1
}

set {
basis        aug-cc-pVTZ
scf_type     df
}

energy("mp2")
