MEMORY 60 GB

molecule dimer {
-1 1
F      0.000000     0.000000     0.000000
--
0 1
O     -1.040126     1.780657     2.166816
H     -0.541147     1.178286     1.649910
H     -1.724440     1.333132     2.698770
O     -0.523250    -1.125202    -2.408440
H     -0.564996    -0.798878    -1.494910
H     -0.402714    -0.362971    -3.050029
O      2.079503    -1.735904    -1.231855
H      2.655438    -2.096123    -0.576863
H      1.401799    -1.195079    -0.875190
O      1.091125     2.218432    -1.098981
H      0.562088     1.505052    -0.640283
H      0.885587     2.085152    -2.049570
O     -0.959463    -2.533583     0.907767
H     -1.720276    -2.363137     1.512543
H     -0.469011    -1.671916     0.866917
O     -2.444628     1.453668    -0.702895
H     -1.752241     0.854757    -0.578124
H     -2.784304     1.603587     0.183625

units ang
no_reorient
no_com
symmetry c1
}

set {
basis        aug-cc-pVTZ
scf_type     df
}

energy("mp2", bsse_type="cp")
