MEMORY 60 GB

molecule dimer {
-1 1
F      0.000000     0.000000     0.000000
--
0 1
O      0.845562    -0.845142    -2.624376
H      0.611386    -0.330636    -3.393450
H      0.621838    -0.297746    -1.856041
O     -1.432887    -0.201644     2.286168
H     -0.868654    -0.102721     1.510265
H     -2.122142     0.377979     2.070333
O      2.434561    -1.422362     0.673959
H      1.818504    -0.731838     0.351774
H      2.614628    -2.112905    -0.060771
O      1.046966     1.802363     1.828080
H      0.810625     1.228982     2.579401
H      0.730030     1.314833     1.056170
O     -1.110680    -2.734785    -0.820393
H     -0.634442    -1.868649    -0.819997
H     -1.235246    -2.898655    -1.759953
O     -1.419169     2.399701    -0.513219
H     -0.863137     1.660037    -0.332687
H     -1.453857     2.952655     0.363362

units ang
no_reorient
no_com
symmetry c1
}

set {
basis        aug-cc-pVTZ
scf_type     df
}

energy("mp2", bsse_type="cp")
