MEMORY 60 GB

molecule dimer {
0 1
Gh(F)      0.000000     0.000000     0.000000
Gh(O)     -1.260900    -2.254512    -1.019552
Gh(H)     -2.116647    -1.981406    -1.460657
Gh(H)     -0.886299    -1.461259    -0.624048
O          0.797432    -1.918530     2.094916
H          0.760946    -1.157874     1.509449
H          0.725951    -1.582356     2.998300
Gh(O)      2.111783     1.327632     1.753854
Gh(H)      2.614097     1.583631     2.486238
Gh(H)      1.329987     0.996826     2.201141
Gh(O)     -2.174612     1.324090     1.166663
Gh(H)     -1.510760     0.876909     0.680206
Gh(H)     -1.789404     1.445993     2.012538
Gh(O)     -1.021032     0.928373    -2.325044
Gh(H)     -0.460450     0.648507    -1.601012
Gh(H)     -1.318384     0.178931    -2.852340
Gh(O)      0.841089     2.518421    -0.309383
Gh(H)      0.478528     1.619902    -0.303863
Gh(H)      1.276908     2.576825     0.587759

units ang
no_reorient
no_com
symmetry c1
}

set {
basis        aug-cc-pVTZ
scf_type     df
}

energy("mp2")
