MEMORY 60 GB

molecule dimer {
-1 1
F          0.000000     0.000000     0.000000
O         -1.321441     0.970764    -2.225812
H         -0.992916     0.400039    -2.920581
H         -0.802183     0.568251    -1.489213
O          2.432565     0.546593    -1.243689
H          1.612306     0.359837    -0.841379
H          3.048573     0.013676    -0.665711
O          1.240147    -0.379821     2.518952
H          0.671240    -0.081223     1.806606
H          1.223288     0.336111     3.147064
O         -2.197900     1.504597     0.957569
H         -1.493668     1.001179     0.522195
H         -2.471022     2.300322     0.431031
O          0.087719    -2.460204    -1.250966
H          0.036346    -1.654206    -0.668350
H          0.899697    -2.835357    -1.025072

units ang
no_reorient
no_com
symmetry c1
}

set {
basis        aug-cc-pVTZ
scf_type     df
}

energy("mp2")
