MEMORY 60 GB

molecule dimer {
-1 1
F          0.000000     0.000000     0.000000
Gh(O)     -0.594284    -0.634372    -2.562911
Gh(H)     -0.497083    -0.431183    -1.650200
Gh(H)     -1.006656    -1.548570    -2.604579
Gh(O)     -1.938246     2.105808    -0.043070
Gh(H)     -1.889287     2.428560    -0.934253
Gh(H)     -1.298126     1.315153    -0.005089
Gh(O)      2.410889    -1.157179    -0.315817
Gh(H)      2.529967    -1.073339    -1.271904
Gh(H)      1.596731    -0.690599    -0.141440
Gh(O)     -2.082039    -1.493757     1.208536
Gh(H)     -1.903126    -2.455205     1.406995
Gh(H)     -1.292528    -1.067209     0.789863

units ang
no_reorient
no_com
symmetry c1
}

set {
basis        aug-cc-pVTZ
scf_type     df
}

energy("mp2")
