MEMORY 60 GB

molecule dimer {
0 1
Gh(F)      0.000000     0.000000     0.000000
Gh(O)     -1.204616    -0.136785     2.716651
Gh(H)     -0.764095     0.061585     1.873340
Gh(H)     -0.834247    -0.946190     3.055175
Gh(O)     -2.460796     0.663282    -0.931792
Gh(H)     -1.503367     0.475959    -0.909133
Gh(H)     -2.899102    -0.181671    -1.051267
Gh(O)     -0.180675     2.936706    -0.188779
Gh(H)      0.620744     3.487452    -0.094289
Gh(H)      0.182580     2.104557    -0.393553
O         -1.696100    -2.154749    -0.360661
H         -0.850512    -1.713972    -0.187306
H         -2.184590    -2.113638     0.460314
Gh(O)      2.323319     0.756460     1.937201
Gh(H)      2.977037     0.096931     1.837480
Gh(H)      1.649232     0.600110     1.235624
Gh(O)      2.482985     0.570779    -1.259187
Gh(H)      1.623031     0.282269    -0.820127
Gh(H)      2.415357     1.553745    -1.408463

units ang
no_reorient
no_com
symmetry c1
}

set {
basis        aug-cc-pVTZ
scf_type     df
}

energy("mp2")
