MEMORY 60 GB

molecule dimer {
-1 1
F          0.000000     0.000000     0.000000
O         -2.818009     0.609374     0.162654
H         -1.778956     0.483442     0.271480
H         -3.220632    -0.066597     0.720491
O          2.085754    -1.822979    -0.697573
H          2.754417    -1.496247    -1.384254
H          1.490905    -1.032822    -0.528178
O         -0.773104    -2.486148     1.447167
H         -0.692628    -2.818456     0.550011
H         -0.394834    -1.622647     1.363823
O          2.467600     1.038241     0.886347
H          2.596338     2.004501     0.812912
H          1.536657     0.944574     0.699383
O         -0.424368     1.472416    -2.159466
H         -0.175504     0.768040    -2.700271
H         -0.368831     1.043143    -1.301063
O         -1.314798    -2.040510    -1.451150
H         -0.878057    -1.502413    -0.767622
H         -2.315826    -1.736101    -1.458899

units ang
no_reorient
no_com
symmetry c1
}

set {
basis        aug-cc-pVTZ
scf_type     df
}

energy("mp2")
