MEMORY 60 GB

molecule dimer {
0 1
Gh(F)      0.000000     0.000000     0.000000
Gh(O)     -0.504269     2.615845     0.858712
Gh(H)     -0.368841     1.747318     0.502742
Gh(H)     -0.320597     2.565113     1.799174
Gh(O)     -1.503618    -1.315665    -1.986342
Gh(H)     -2.280667    -0.801501    -2.366013
Gh(H)     -1.171011    -0.825309    -1.270502
O          2.723573    -0.791721     0.593434
H          1.984339    -0.306086     0.872898
H          2.496015    -1.256115    -0.252519
Gh(O)     -0.166216    -0.566886     2.722248
Gh(H)     -0.104215    -0.470380     1.811756
Gh(H)      0.267185    -1.405528     2.999724
Gh(O)      1.430300     1.446224    -1.905269
Gh(H)      2.087411     1.977584    -1.375924
Gh(H)      0.975354     0.908102    -1.325386

units ang
no_reorient
no_com
symmetry c1
}

set {
basis        aug-cc-pVTZ
scf_type     df
}

energy("mp2")
