MEMORY 60 GB

molecule dimer {
-1 1
F          0.000000     0.000000     0.000000
O          2.400550     0.878111     1.258466
H          1.541205     0.949633     0.811432
H          2.699131     1.774987     1.477501
O         -2.134479     1.075150     1.390297
H         -2.935259     0.501464     1.548356
H         -1.522539     0.602603     0.828169
O         -2.058570    -0.966210    -1.758447
H         -1.269903    -0.802439    -1.187441
H         -2.168440    -1.875697    -2.119616
O          2.056294    -1.500050    -1.140092
H          1.522958    -0.799826    -0.738451
H          2.773549    -1.554714    -0.462578
O         -0.008638     2.314735    -1.744331
H         -0.015099     1.517325    -1.142884
H         -0.979067     2.389768    -1.960602
O          0.111329    -1.229377     2.544786
H         -0.031102    -0.875406     1.676046
H          0.128193    -0.452941     3.103989

units ang
no_reorient
no_com
symmetry c1
}

set {
basis        aug-cc-pVTZ
scf_type     df
}

energy("mp2")
