MEMORY 60 GB

molecule dimer {
-1 1
F          0.000000     0.000000     0.000000
O         -0.499858     2.656083    -0.452516
H         -0.568811     1.780548    -0.057749
H         -0.971596     2.655662    -1.273282
O          2.032753     1.165306     1.191711
H          1.862455     1.191590     2.129967
H          1.311241     0.610980     0.867723
O          1.503412    -0.706894    -2.146729
H          2.318272    -0.158179    -2.419535
H          1.004696    -0.164797    -1.460316
O         -1.040215     0.023420     2.545448
H         -0.674650     0.273310     1.628852
H         -1.234537     0.904277     2.858910

units ang
no_reorient
no_com
symmetry c1
}

set {
basis        aug-cc-pVTZ
scf_type     df
}

energy("mp2")
