MEMORY 60 GB

molecule dimer {
0 1
Gh(F)      0.000000     0.000000     0.000000
Gh(O)     -0.952365     1.069811     2.420031
Gh(H)     -1.809142     1.433385     2.206942
Gh(H)     -0.677213     0.589182     1.599917
Gh(O)     -2.646160    -0.758425    -0.155469
Gh(H)     -1.673478    -0.567133     0.114755
Gh(H)     -2.882933    -1.589745     0.287001
Gh(O)     -0.629425     1.382429    -2.327001
Gh(H)     -0.579909     1.003938    -1.422959
Gh(H)     -1.177112     2.140621    -2.269006
O          2.229730     1.512680     0.749307
H          1.907904     1.873311     1.582375
H          1.496351     0.913088     0.515515
Gh(O)      0.351042    -2.383392     1.594232
Gh(H)     -0.034028    -1.661486     0.966528
Gh(H)      1.180438    -2.089714     1.976787

units ang
no_reorient
no_com
symmetry c1
}

set {
basis        aug-cc-pVTZ
scf_type     df
}

energy("mp2")
