MEMORY 60 GB

molecule dimer {
-1 1
F      0.000000     0.000000     0.000000
--
0 1
O     -0.438919    -0.065851    -2.824863
H     -0.453151    -0.010706    -1.844303
H      0.269337     0.572966    -3.103457
O      1.699712     2.467898    -0.707959
H      1.972730     2.097516    -1.527574
H      0.803553     2.124371    -0.498661
O     -1.598723     2.231195     0.689214
H     -1.137580     1.418592     0.486558
H     -1.200463     2.623434     1.455794
O      0.369426    -1.062940     2.386597
H      0.423642    -0.786785     1.439357
H      1.049594    -0.462803     2.764259
O     -2.326821    -1.205989    -0.091246
H     -1.446384    -0.840894    -0.034548
H     -2.150655    -2.055095    -0.428599
O      2.110671    -1.418731    -1.257848
H      1.265691    -1.026664    -0.962676
H      2.460850    -0.901074    -2.008568

units ang
no_reorient
no_com
symmetry c1
}

set {
basis        aug-cc-pVTZ
scf_type     df
}

energy("mp2", bsse_type="cp")
