MEMORY 60 GB

molecule dimer {
-1 1
F      0.000000     0.000000     0.000000
--
0 1
O     -1.944527     0.667499    -2.037884
H     -1.368387     0.229404    -1.388126
H     -1.725369     0.146857    -2.796287
O      2.643442     0.923070     0.544992
H      1.757284     0.494516     0.594070
H      2.927492     0.930628     1.470439
O     -0.089574    -2.415065     1.212511
H     -0.321483    -1.491225     0.904779
H      0.328480    -2.335764     2.040561
O      1.394067     1.308528    -2.063548
H      1.073967     0.850781    -1.278231
H      0.906903     2.092693    -2.265606
O     -2.338432     0.730854     1.212540
H     -2.409960     1.553376     1.716659
H     -1.476015     0.775888     0.745875

units ang
no_reorient
no_com
symmetry c1
}

set {
basis        aug-cc-pVTZ
scf_type     df
}

energy("mp2", bsse_type="cp")
