MEMORY 60 GB

molecule dimer {
-1 1
F          0.000000     0.000000     0.000000
O          1.512197     2.406580     0.840529
H          1.189138     1.586338     0.433157
H          2.329104     2.157667     1.308984
O          2.683513    -0.541509    -1.145838
H          1.792279    -0.332970    -1.099115
H          2.865836    -1.009315    -1.953440
O          0.329378     0.134783     2.607000
H          0.981309    -0.433808     3.083691
H          0.427067     0.007313     1.637742
O         -1.529615     2.372468    -0.487485
H         -2.400986     2.019607    -0.798232
H         -0.921564     1.683072    -0.056461
O         -1.725904    -1.071838    -2.007168
H         -0.961340    -0.890348    -1.431397
H         -2.335466    -0.373033    -1.946563
O         -1.183214    -2.045956     1.508332
H         -0.765362    -1.328612     0.983167
H         -0.774333    -1.986699     2.409746

units ang
no_reorient
no_com
symmetry c1
}

set {
basis        aug-cc-pVTZ
scf_type     df
}

energy("mp2")
