MEMORY 60 GB

molecule dimer {
-1 1
F          0.000000     0.000000     0.000000
O         -1.099415     0.509468    -2.395867
H         -0.823277     0.145981    -1.541676
H         -1.890375     0.027373    -2.614284
O          0.238498     2.462715     1.298490
H          0.012979     3.164109     0.695784
H          0.008055     1.642894     0.840179
O          0.322958    -1.372463     2.497652
H         -0.493733    -1.781919     2.917983
H          0.095175    -0.785721     1.771503
O         -2.636381    -0.435403     0.978292
H         -1.761899    -0.148892     0.629044
H         -3.224729     0.257191     0.655683
O          2.875216     1.167609    -0.219419
H          2.072560     0.692871    -0.290350
H          3.166030     1.069334     0.690007

units ang
no_reorient
no_com
symmetry c1
}

set {
basis        aug-cc-pVTZ
scf_type     df
}

energy("mp2")
