MEMORY 60 GB

molecule dimer {
0 1
Gh(F)      0.000000     0.000000     0.000000
Gh(O)      1.817114     1.946444    -0.723175
Gh(H)      1.018768     1.381289    -1.036039
Gh(H)      2.133974     1.611845     0.184788
Gh(O)     -1.618648     2.227966     0.983095
Gh(H)     -1.190650     1.430225     0.637791
Gh(H)     -1.783720     2.118152     1.906642
Gh(O)     -0.955691     1.698319    -2.105695
Gh(H)     -0.402285     1.876495    -2.895468
Gh(H)     -1.255684     0.819664    -2.003767
O          1.688096    -0.251298     2.069765
H          2.518079     0.189713     1.984541
H          1.298638    -0.141263     1.240993
Gh(O)      1.074017    -0.791253    -2.569566
Gh(H)      1.889382    -0.271590    -2.714166
Gh(H)      0.775089    -0.600320    -1.647716
Gh(O)     -1.131261    -2.325104     0.575167
Gh(H)     -0.809361    -1.464786     0.417327
Gh(H)     -2.086261    -2.127325     0.545425

units ang
no_reorient
no_com
symmetry c1
}

set {
basis        aug-cc-pVTZ
scf_type     df
}

energy("mp2")
