MEMORY 60 GB

molecule dimer {
-1 1
F      0.000000     0.000000     0.000000
--
0 1
O      0.837524     0.653179     2.553921
H      0.450484     0.492379     1.655690
H      1.594760     0.044820     2.624147
O      2.594542     0.172347    -1.320489
H      2.132419     0.238275    -0.450632
H      2.553603     1.076321    -1.724631
O     -1.636542     0.886029    -2.279818
H     -2.157956     0.116431    -2.594786
H     -1.276453     0.610612    -1.388084
O      1.537179    -2.637515     0.278263
H      1.257767    -1.689888     0.387885
H      0.903055    -3.046812    -0.310398
O     -2.510626    -0.310738     1.625874
H     -1.585188    -0.173293     1.439381
H     -2.750973    -0.165710     2.541553
O      0.946957     2.640609    -0.101277
H      0.622536     1.701020    -0.141447
H      0.455089     3.126381    -0.849022

units ang
no_reorient
no_com
symmetry c1
}

set {
basis        aug-cc-pVTZ
scf_type     df
}

energy("mp2", bsse_type="cp")
