MEMORY 60 GB

molecule dimer {
0 1
Gh(F)      0.000000     0.000000     0.000000
Gh(O)      0.588473    -0.884411    -2.532590
Gh(H)      0.570163    -0.750592    -1.554364
Gh(H)      0.212599    -1.767260    -2.854982
Gh(O)      1.249696     2.505029    -0.435608
Gh(H)      0.855008     1.572903    -0.277964
Gh(H)      2.124949     2.543701     0.017355
O         -2.575407    -0.483611     0.341632
H         -3.023020    -0.104900    -0.406895
H         -1.638645    -0.352131     0.088858
Gh(O)      0.581612     0.878877     2.831679
Gh(H)      0.628358     0.650704     1.918655
Gh(H)      1.486052     1.034802     3.119274
Gh(O)     -0.124634    -2.755181     0.993578
Gh(H)     -0.046177    -1.822951     0.906365
Gh(H)      0.293841    -3.171635     0.264619

units ang
no_reorient
no_com
symmetry c1
}

set {
basis        aug-cc-pVTZ
scf_type     df
}

energy("mp2")
