MEMORY 60 GB

molecule dimer {
0 1
Gh(F)      0.000000     0.000000     0.000000
Gh(O)     -1.136882    -1.427020    -2.064111
Gh(H)     -0.783852    -0.777272    -1.407214
Gh(H)     -0.400851    -1.885120    -2.490398
O          0.647093     1.533221    -2.138006
H         -0.259996     1.897885    -2.425146
H          0.490876     1.036365    -1.331999
Gh(O)     -1.960682     2.060929     0.326986
Gh(H)     -1.310449     1.308838     0.298130
Gh(H)     -2.313939     1.970028     1.209085
Gh(O)      0.487728    -2.673074     1.248775
Gh(H)      0.447712    -2.447997     2.166696
Gh(H)      0.530132    -1.919359     0.687623

units ang
no_reorient
no_com
symmetry c1
}

set {
basis        aug-cc-pVTZ
scf_type     df
}

energy("mp2")
