MEMORY 60 GB

molecule dimer {
-1 1
F      0.000000     0.000000     0.000000
--
0 1
O     -2.514233    -0.838589    -0.868966
H     -2.777531    -0.864339    -1.789497
H     -1.566044    -0.593973    -0.828615
O     -0.782480     1.801604    -2.000038
H     -1.732362     1.945839    -1.851762
H     -0.584653     1.094475    -1.373167
O     -0.590907     2.720783     1.336329
H      0.319764     2.744529     0.971711
H     -0.949250     1.810129     1.212275
O      2.242812     1.445091    -0.026596
H      1.411790     1.013484    -0.212396
H      2.372371     1.996144    -0.840441
O      1.553258    -1.647504    -1.312027
H      1.527789    -2.312558    -0.611092
H      1.024731    -0.930018    -0.897315

units ang
no_reorient
no_com
symmetry c1
}

set {
basis        aug-cc-pVTZ
scf_type     df
}

energy("mp2", bsse_type="cp")
