MEMORY 60 GB

molecule dimer {
-1 1
F      0.000000     0.000000     0.000000
--
0 1
O      0.680826    -0.939261    -2.565720
H      0.776711    -0.509976    -1.665094
H      1.177620    -0.426589    -3.141786
O      2.494322     1.215623     0.856945
H      3.185249     1.015423     1.522625
H      1.828253     0.531859     0.918648
O      0.310218    -2.799566     0.371117
H      0.088505    -1.923298     0.173876
H      0.230665    -3.288922    -0.432281
O     -1.077882     0.253175     2.550768
H     -0.802564     0.336791     1.574496
H     -0.449028    -0.396209     2.897838
O     -0.031927     3.083942    -0.157883
H      0.456398     3.797739    -0.602452
H      0.246498     2.223721    -0.550204
O     -2.743171    -0.297210    -0.425433
H     -1.827612    -0.242352    -0.365725
H     -3.147919     0.492464     0.012583

units ang
no_reorient
no_com
symmetry c1
}

set {
basis        aug-cc-pVTZ
scf_type     df
}

energy("mp2", bsse_type="cp")
