MEMORY 60 GB

molecule dimer {
0 1
Gh(F)      0.000000     0.000000     0.000000
Gh(O)     -1.091558    -1.809519     1.863944
Gh(H)     -1.964939    -2.052092     1.500602
Gh(H)     -0.591849    -1.199205     1.314271
O          0.258123    -2.349417    -1.373394
H          0.547624    -1.593259    -0.773108
H         -0.646190    -2.478934    -1.244225
Gh(O)     -0.214660     2.146157     2.063174
Gh(H)     -0.165088     1.390555     1.502524
Gh(H)     -0.077747     1.856844     2.975158
Gh(O)     -2.197647     0.913173    -1.713640
Gh(H)     -2.446327     0.152611    -2.322329
Gh(H)     -2.435783     1.766268    -2.074757
Gh(O)      2.616092    -0.020543     0.476284
Gh(H)      1.590067     0.041365     0.327444
Gh(H)      2.682891    -0.935497     0.868501
Gh(O)     -2.727641     0.971623     1.032331
Gh(H)     -2.177883     0.803632     0.264595
Gh(H)     -2.164027     1.556644     1.587096
Gh(O)      0.756321     1.995676    -1.708341
Gh(H)      0.223582     2.645031    -1.239711
Gh(H)      0.300779     1.186526    -1.574937

units ang
no_reorient
no_com
symmetry c1
}

set {
basis        aug-cc-pVTZ
scf_type     df
}

energy("mp2")
