MEMORY 60 GB

molecule dimer {
0 1
Gh(F)      0.000000     0.000000     0.000000
Gh(O)     -2.059057     0.556806    -1.512511
Gh(H)     -1.631697     0.750314    -2.355200
Gh(H)     -1.337052     0.357530    -0.924989
Gh(O)     -1.092632     0.531104     2.514755
Gh(H)     -0.595685     0.472327     1.701018
Gh(H)     -0.807881     1.360419     2.908593
O          1.853987     2.045109    -0.296217
H          1.205149     1.477398     0.090440
H          1.333577     2.420067    -1.019413

units ang
no_reorient
no_com
symmetry c1
}

set {
basis        aug-cc-pVTZ
scf_type     df
}

energy("mp2")
