MEMORY 60 GB

molecule dimer {
0 1
Gh(F)      0.000000     0.000000     0.000000
Gh(O)     -2.554885    -0.515321     0.758406
Gh(H)     -1.612284    -0.473038     0.582957
Gh(H)     -2.842041    -1.403277     1.084241
Gh(O)      1.083037     2.154867     1.385653
Gh(H)      0.609748     1.409713     0.882328
Gh(H)      1.632519     2.510959     0.665831
Gh(O)      0.426737    -2.496911    -0.665385
Gh(H)      0.303600    -3.137566     0.078614
Gh(H)     -0.052202    -1.707756    -0.340693
O         -1.104728     2.400067    -1.171868
H         -1.500405     1.941350    -1.947783
H         -0.886647     1.656492    -0.613653

units ang
no_reorient
no_com
symmetry c1
}

set {
basis        aug-cc-pVTZ
scf_type     df
}

energy("mp2")
