MEMORY 60 GB

molecule dimer {
-1 1
F          0.000000     0.000000     0.000000
O         -1.945136    -1.413182     1.367579
H         -1.132921    -0.938922     1.171212
H         -2.651383    -0.875104     0.961083
O         -1.350681    -2.008379    -1.670930
H         -0.985944    -1.268364    -1.181080
H         -1.736380    -2.627030    -1.021029
O          0.862309    -0.601341     2.674102
H          1.741873    -0.563225     3.014842
H          0.976276    -0.526036     1.729429
O         -1.323555     2.376947     0.717854
H         -0.951878     1.552126     0.528634
H         -1.972845     2.155135     1.420980
O          1.514005     2.065652    -0.894712
H          0.997807     1.295821    -0.630673
H          2.370089     1.930574    -0.478737

units ang
no_reorient
no_com
symmetry c1
}

set {
basis        aug-cc-pVTZ
scf_type     df
}

energy("mp2")
