MEMORY 60 GB

molecule dimer {
-1 1
F          0.000000     0.000000     0.000000
O         -0.533187     2.775168     0.632670
H          0.295886     3.282857     0.735170
H         -0.295187     1.845584     0.468372
O          1.234959     1.939079    -1.505495
H          0.841673     1.153378    -1.117670
H          1.897476     2.286047    -0.880775
O         -0.240420    -2.398413     1.233884
H         -0.215194    -1.544907     0.708591
H         -0.201083    -3.097122     0.599028
O         -2.770068     0.194255    -0.484586
H         -1.879200     0.202821    -0.161510
H         -3.260491    -0.522595    -0.053105
O         -0.063457    -1.551951    -2.197817
H          0.007654    -0.846794    -1.528243
H         -0.969421    -2.020789    -2.142271

units ang
no_reorient
no_com
symmetry c1
}

set {
basis        aug-cc-pVTZ
scf_type     df
}

energy("mp2")
