MEMORY 60 GB

molecule dimer {
0 1
Gh(F)      0.000000     0.000000     0.000000
Gh(O)     -2.535941    -0.518749    -0.841397
Gh(H)     -2.920259     0.371723    -0.962405
Gh(H)     -1.599270    -0.369082    -0.662928
Gh(O)      1.559802     1.999498     1.426683
Gh(H)      1.052305     1.577903     0.700547
Gh(H)      2.485581     1.914871     1.234694
Gh(O)      1.354501    -1.676034    -1.827240
Gh(H)      2.081264    -1.020441    -1.804735
Gh(H)      0.735366    -1.229436    -1.225870
Gh(O)      2.371662    -0.821742     1.847114
Gh(H)      1.868561    -0.165946     1.393601
Gh(H)      2.048718    -0.788545     2.707674
O         -0.396813    -1.938838     2.239603
H         -0.284999    -1.373573     1.502641
H         -1.382193    -1.991135     2.209240
Gh(O)     -2.085558     1.288771     1.727221
Gh(H)     -1.503937     2.039451     1.584522
Gh(H)     -1.562251     0.562158     1.399159
Gh(O)     -0.164884     1.767301    -2.325383
Gh(H)     -0.793236     1.519173    -3.058380
Gh(H)     -0.020245     1.007979    -1.706815

units ang
no_reorient
no_com
symmetry c1
}

set {
basis        aug-cc-pVTZ
scf_type     df
}

energy("mp2")
