MEMORY 60 GB

molecule dimer {
-1 1
F      0.000000     0.000000     0.000000
--
0 1
O      1.793472    -2.266511    -0.092888
H      1.763845    -2.397327     0.845606
H      0.978558    -1.723771    -0.253568
O      0.660188     0.993220     2.493564
H     -0.122404     1.069889     3.027976
H      0.503953     0.186710     1.959817
O     -0.690392    -1.471906    -2.361938
H     -0.556917    -1.124097    -1.508427
H     -0.721481    -2.433572    -2.323726
O      1.530549     1.044253    -2.077763
H      1.110398     1.449909    -2.804950
H      0.839571     0.812979    -1.396290
O     -2.357393     1.196648    -0.494342
H     -2.542465     1.666648     0.313393
H     -1.569354     0.722806    -0.305017

units ang
no_reorient
no_com
symmetry c1
}

set {
basis        aug-cc-pVTZ
scf_type     df
}

energy("mp2", bsse_type="cp")
