MEMORY 60 GB

molecule dimer {
-1 1
F          0.000000     0.000000     0.000000
O         -1.254088    -1.142537    -2.417176
H         -0.631148    -1.581451    -3.028934
H         -0.778164    -0.740928    -1.674863
O         -0.057219     2.426383    -1.313720
H         -0.057407     1.609916    -0.812182
H         -0.845317     2.970306    -1.027585
O          2.516034     0.501269    -0.681349
H          2.742378    -0.372026    -0.952918
H          1.589097     0.394194    -0.467607
O         -1.246877     0.634837     2.442815
H         -0.668058    -0.102871     2.736022
H         -0.910013     0.825774     1.599682
O         -0.108124    -2.872909    -0.185625
H         -0.484207    -3.076891     0.701130
H         -0.163962    -1.865782    -0.238802

units ang
no_reorient
no_com
symmetry c1
}

set {
basis        aug-cc-pVTZ
scf_type     df
}

energy("mp2")
