MEMORY 60 GB

molecule dimer {
-1 1
F      0.000000     0.000000     0.000000
--
0 1
O      2.081703    -1.508701     1.473146
H      1.423928    -1.144779     0.827316
H      1.989185    -0.825890     2.234926
O     -1.611172     1.039781    -2.139406
H     -1.249726     0.761251    -1.244112
H     -1.011081     0.474083    -2.746982
O      0.972873    -2.190476    -1.634802
H      0.624232    -1.381249    -1.276102
H      0.243327    -2.774866    -1.933728
O     -0.433920     2.565224     0.815342
H     -0.264565     1.626146     0.879923
H      0.340327     2.904093     1.318431
O     -2.434501    -1.580169     0.979841
H     -2.571580    -1.692205     1.903886
H     -1.682664    -1.058526     0.812807
O      1.827191     1.758440    -0.803170
H      1.167277     1.082376    -0.802700
H      1.643038     2.278252    -1.564266

units ang
no_reorient
no_com
symmetry c1
}

set {
basis        aug-cc-pVTZ
scf_type     df
}

energy("mp2", bsse_type="cp")
