MEMORY 60 GB

molecule dimer {
-1 1
F          0.000000     0.000000     0.000000
O          2.779088    -0.118830    -0.906542
H          2.861577    -0.902793    -1.461637
H          1.786663    -0.046131    -0.692626
O         -1.341633     2.261718    -1.186341
H         -1.115566     2.466266    -2.140941
H         -0.840947     1.535422    -0.871680
O          1.697414    -0.600219     2.291858
H          2.307780    -1.309760     2.178210
H          0.932232    -0.756904     1.737642
O         -1.062014    -1.090209    -2.427699
H         -1.550385    -0.449677    -2.957604
H         -0.707907    -0.582861    -1.692225
O         -2.678698    -0.614221     0.746640
H         -3.546811    -0.478083     0.421902
H         -2.030516    -0.148316     0.196031
O         -0.115018     2.307183     1.459312
H          0.071014     1.562964     0.988675
H         -1.079045     2.401109     1.137642

units ang
no_reorient
no_com
symmetry c1
}

set {
basis        aug-cc-pVTZ
scf_type     df
}

energy("mp2")
