MEMORY 60 GB

molecule dimer {
-1 1
F      0.000000     0.000000     0.000000
--
0 1
O     -0.397648    -0.910418     2.622164
H     -0.278439    -0.332943     1.846098
H     -0.948382    -1.629149     2.239891
O      0.397013     2.439291     1.895123
H      0.857906     1.621274     1.666906
H     -0.315526     2.168674     2.538856
O      1.430544    -2.203104    -0.374068
H      0.802760    -1.465357    -0.109589
H      2.163364    -2.326051     0.230939
O     -2.107879    -1.075061    -1.420751
H     -1.468864    -0.523104    -0.966716
H     -2.939395    -0.987639    -0.873767
O      1.169294     1.920077    -2.056293
H      0.738830     1.355211    -1.379914
H      1.743484     1.303436    -2.480539
O     -1.806412     1.932441     0.047936
H     -1.097988     1.281221     0.130003
H     -1.594507     2.797864     0.448413

units ang
no_reorient
no_com
symmetry c1
}

set {
basis        aug-cc-pVTZ
scf_type     df
}

energy("mp2", bsse_type="cp")
