MEMORY 60 GB

molecule dimer {
-1 1
F          0.000000     0.000000     0.000000
Gh(O)      2.858282    -0.833213     0.651091
Gh(H)      3.399293     0.024160     0.566205
Gh(H)      1.903206    -0.625238     0.585710
Gh(O)      1.868433     2.058308    -1.208021
Gh(H)      2.540721     2.007336    -0.483762
Gh(H)      1.227009     1.397810    -1.025747
Gh(O)     -0.032310    -2.129156    -1.895246
Gh(H)      0.717469    -2.702061    -1.661178
Gh(H)     -0.051575    -1.419248    -1.207236
Gh(O)     -2.451498    -1.582454    -0.217801
Gh(H)     -1.706112    -0.991466    -0.104451
Gh(H)     -2.028729    -2.422132     0.060201
Gh(O)     -1.886662     1.914792    -0.671064
Gh(H)     -1.332695     2.697518    -0.516387
Gh(H)     -1.209928     1.217135    -0.609328
Gh(O)      0.158118    -2.574331     1.157629
Gh(H)      0.034132    -1.637920     1.237985
Gh(H)     -0.064963    -2.865203     2.037544

units ang
no_reorient
no_com
symmetry c1
}

set {
basis        aug-cc-pVTZ
scf_type     df
}

energy("mp2")
