MEMORY 60 GB

molecule dimer {
-1 1
F          0.000000     0.000000     0.000000
O         -0.207769    -2.327129     1.239569
H          0.037713    -3.149829     0.838322
H         -0.081193    -1.636015     0.550989
O         -2.599898    -0.694839    -0.679029
H         -2.709680    -0.858637    -1.571457
H         -1.656530    -0.607954    -0.409434
O          1.812665     1.083834     2.219277
H          1.153673     0.568273     1.755293
H          1.370089     1.213940     3.097476
O          2.512982    -1.496631    -0.619434
H          1.794318    -0.888816    -0.358592
H          2.943913    -1.115172    -1.446926
O         -0.703861     1.904262    -1.805602
H         -1.312640     2.645681    -1.719120
H         -0.646566     1.565853    -0.948304

units ang
no_reorient
no_com
symmetry c1
}

set {
basis        aug-cc-pVTZ
scf_type     df
}

energy("mp2")
