MEMORY 60 GB

molecule dimer {
0 1
Gh(F)      0.000000     0.000000     0.000000
Gh(O)     -1.926510    -0.488905     1.828209
Gh(H)     -1.218437    -0.291512     1.216095
Gh(H)     -1.943797     0.253946     2.436303
Gh(O)     -1.465982     2.344386    -0.959195
Gh(H)     -1.258918     1.474742    -0.673609
Gh(H)     -0.760802     2.572151    -1.640564
O          1.781208     1.993985     0.947440
H          2.722858     1.834958     1.158027
H          1.404065     1.156182     0.633208
Gh(O)      0.920742    -0.070805    -2.597380
Gh(H)      0.201064     0.162434    -3.173783
Gh(H)      0.557053     0.093415    -1.736858
Gh(O)      1.502065    -2.307810     0.115819
Gh(H)      1.299950    -2.782798    -0.663331
Gh(H)      1.063706    -1.409643     0.038071

units ang
no_reorient
no_com
symmetry c1
}

set {
basis        aug-cc-pVTZ
scf_type     df
}

energy("mp2")
