MEMORY 60 GB

molecule dimer {
-1 1
F      0.000000     0.000000     0.000000
--
0 1
O      1.085350    -0.452967    -2.498595
H      0.740226    -0.290867    -1.628710
H      1.712584     0.278333    -2.718517
O      2.724779     1.025508     1.044409
H      1.842746     0.753869     0.654207
H      2.827630     0.510970     1.864390
O      0.347464     2.793856    -0.347316
H      0.359101     1.813032    -0.464677
H      1.260776     3.131718    -0.519961
O     -0.522190    -0.709648     2.712844
H     -1.491139    -0.927418     2.859256
H     -0.468495    -0.514250     1.793049
O      1.416063    -2.457372     0.057633
H      0.659838    -3.068519     0.149532
H      0.955921    -1.620980    -0.132078
O     -2.262354    -0.569114    -1.491409
H     -1.655329    -0.029416    -0.956922
H     -2.394828    -1.281723    -0.858167

units ang
no_reorient
no_com
symmetry c1
}

set {
basis        aug-cc-pVTZ
scf_type     df
}

energy("mp2", bsse_type="cp")
