MEMORY 60 GB

molecule dimer {
0 1
Gh(F)      0.000000     0.000000     0.000000
Gh(O)      1.372061    -1.347210    -1.932574
Gh(H)      1.774702    -2.112636    -1.501750
Gh(H)      0.855323    -0.909015    -1.230796
O         -1.740094    -2.011283    -0.219246
H         -1.508601    -2.530431    -0.974565
H         -1.010642    -1.384241    -0.176034
Gh(O)     -1.563985     1.368744    -1.739992
Gh(H)     -1.407057     0.868260    -2.530266
Gh(H)     -1.046196     0.902619    -1.029123
Gh(O)     -1.071139    -0.537241     2.612539
Gh(H)     -0.620873    -0.301090     1.726356
Gh(H)     -0.452618    -0.183595     3.292619

units ang
no_reorient
no_com
symmetry c1
}

set {
basis        aug-cc-pVTZ
scf_type     df
}

energy("mp2")
