MEMORY 60 GB

molecule dimer {
-1 1
F      0.000000     0.000000     0.000000
--
0 1
O     -2.413496     0.942059     1.683179
H     -2.369850     1.675598     2.308522
H     -1.516197     0.609131     1.412280
O      1.644372    -2.458712     0.050667
H      1.033770    -1.732996     0.175981
H      1.480271    -2.944848     0.845458
O      0.820687     0.822159     2.619673
H      0.614436     0.700992     1.654114
H      0.656262     1.757957     2.775129
O     -2.196713    -1.512783    -0.142220
H     -2.784492    -0.795457    -0.455902
H     -1.397291    -0.991488    -0.086194
O     -0.307997     2.194705    -1.635644
H     -0.307018     1.433362    -1.078243
H     -1.239503     2.400415    -1.651584

units ang
no_reorient
no_com
symmetry c1
}

set {
basis        aug-cc-pVTZ
scf_type     df
}

energy("mp2", bsse_type="cp")
