MEMORY 60 GB

molecule dimer {
0 1
Gh(F)      0.000000     0.000000     0.000000
Gh(O)      2.300634    -1.333306    -0.902108
Gh(H)      1.393934    -1.048189    -0.537281
Gh(H)      2.196325    -1.676113    -1.778413
Gh(O)     -0.721455     0.039200     2.664180
Gh(H)     -0.478323    -0.147144     1.721719
Gh(H)     -0.301277    -0.711256     3.142866
Gh(O)     -1.968178     1.181669    -1.178721
Gh(H)     -2.732253     0.755644    -0.806522
Gh(H)     -1.213738     0.822443    -0.721049
Gh(O)     -2.147115    -1.870979    -0.798426
Gh(H)     -1.363119    -1.488592    -0.414049
Gh(H)     -2.860249    -1.280709    -0.613524
O          0.601987     2.534872     1.009589
H          0.625186     1.602289     0.786548
H          1.072015     2.565401     1.876249

units ang
no_reorient
no_com
symmetry c1
}

set {
basis        aug-cc-pVTZ
scf_type     df
}

energy("mp2")
