MEMORY 60 GB

molecule dimer {
-1 1
F          0.000000     0.000000     0.000000
Gh(O)      2.677680    -0.431683     0.982344
Gh(H)      2.933162     0.317043     0.487951
Gh(H)      1.708005    -0.404595     0.837210
Gh(O)      1.576856    -0.040462    -2.621091
Gh(H)      2.404113    -0.374615    -2.443570
Gh(H)      1.025387    -0.010348    -1.815928
Gh(O)     -2.450615     0.572312     1.271496
Gh(H)     -1.576686     0.559397     0.900868
Gh(H)     -2.799350     1.506271     1.234932
Gh(O)      0.318935     2.917871     0.285605
Gh(H)      0.929765     3.196369     1.002172
Gh(H)      0.243820     1.921280     0.350783
Gh(O)     -1.632182    -0.210996    -2.315884
Gh(H)     -1.059865    -0.204007    -1.547666
Gh(H)     -1.569097     0.672687    -2.721168
Gh(O)     -0.849068    -2.951308     0.210019
Gh(H)     -0.770250    -1.966145     0.116227
Gh(H)     -0.630310    -3.256642    -0.643333

units ang
no_reorient
no_com
symmetry c1
}

set {
basis        aug-cc-pVTZ
scf_type     df
}

energy("mp2")
