MEMORY 60 GB

molecule dimer {
-1 1
F          0.000000     0.000000     0.000000
O          0.544622     1.947141    -1.930994
H         -0.303699     2.411400    -1.706903
H          0.604706     1.172877    -1.303359
O         -2.128467     0.389057     1.730632
H         -1.379894     0.192361     1.173874
H         -1.919456     0.067224     2.612103
O         -0.085529    -2.704846    -1.508295
H         -0.656689    -3.406752    -1.099236
H         -0.267173    -1.961465    -0.940136
O          1.549814     1.756379     1.450147
H          1.046493     1.052841     1.074196
H          1.497360     2.437675     0.800406
O         -2.175092    -0.185080    -1.433318
H         -2.620425     0.653858    -1.755423
H         -1.332482     0.046421    -1.015543

units ang
no_reorient
no_com
symmetry c1
}

set {
basis        aug-cc-pVTZ
scf_type     df
}

energy("mp2")
