MEMORY 60 GB

molecule dimer {
0 1
Gh(F)      0.000000     0.000000     0.000000
Gh(O)      2.385569     0.742591     1.674951
Gh(H)      1.619624     0.724586     1.100121
Gh(H)      2.424688    -0.125409     2.056396
Gh(O)     -0.239041    -2.096331    -1.876795
Gh(H)      0.025958    -2.893733    -1.489325
Gh(H)     -0.471491    -1.429774    -1.203876
Gh(O)      0.205984    -2.249977     1.611546
Gh(H)     -0.314760    -2.967836     1.148222
Gh(H)      0.191515    -1.386093     1.171929
Gh(O)     -1.908189     0.748542     1.890951
Gh(H)     -1.585089     1.599532     2.357873
Gh(H)     -1.246971     0.562129     1.226859
Gh(O)     -0.543220     2.567600    -0.603874
Gh(H)     -0.100372     1.702524    -0.500902
Gh(H)     -1.436617     2.597652    -0.284137
O          2.601881     0.224157    -1.352015
H          1.685409     0.167066    -1.062671
H          2.612419     0.812342    -2.122170

units ang
no_reorient
no_com
symmetry c1
}

set {
basis        aug-cc-pVTZ
scf_type     df
}

energy("mp2")
