MEMORY 60 GB

molecule dimer {
-1 1
F          0.000000     0.000000     0.000000
O          1.083487     1.163503    -2.426510
H          0.943812     0.577349    -3.200577
H          0.539524     0.760717    -1.711888
O         -0.494244    -2.731057     0.347994
H         -0.429507    -1.802030     0.254898
H          0.255994    -3.099428    -0.002083
O         -1.560254     2.216611     0.530057
H         -1.025108     3.040199     0.409244
H         -0.961843     1.486509     0.454221
O          1.214809     0.712872     2.482325
H          0.834328     0.841337     1.604326
H          1.778510    -0.049437     2.410774
O          2.620893    -1.324543     0.095877
H          1.695148    -0.897003     0.074745
H          2.528597    -2.249405    -0.321033
O         -2.624165    -0.409702    -1.323028
H         -3.303734    -0.066172    -0.725785
H         -1.750133    -0.322732    -0.885164

units ang
no_reorient
no_com
symmetry c1
}

set {
basis        aug-cc-pVTZ
scf_type     df
}

energy("mp2")
