MEMORY 60 GB

molecule dimer {
0 1
Gh(F)      0.000000     0.000000     0.000000
Gh(O)      1.451835    -1.452535     2.052395
Gh(H)      1.469584    -0.899906     1.315952
Gh(H)      1.373633    -0.980960     2.860466
Gh(O)     -0.559359    -2.672142    -0.866309
Gh(H)      0.288354    -3.135902    -0.865194
Gh(H)     -0.225876    -1.778096    -0.742343
Gh(O)      1.611940     2.034987     1.608686
Gh(H)      1.025985     2.541931     2.212233
Gh(H)      0.965893     1.555115     0.966858
O         -1.608533    -0.904734     2.300778
H         -1.271895    -0.716260     1.375122
H         -0.910123    -1.497503     2.647384
Gh(O)     -2.280907     1.332090     0.163613
Gh(H)     -1.494680     0.704833    -0.100659
Gh(H)     -1.895508     2.117946     0.620702
Gh(O)      0.450456     0.337148    -2.757854
Gh(H)      1.193771     0.963211    -3.022596
Gh(H)      0.495681     0.289983    -1.818199

units ang
no_reorient
no_com
symmetry c1
}

set {
basis        aug-cc-pVTZ
scf_type     df
}

energy("mp2")
