MEMORY 60 GB

molecule dimer {
0 1
Gh(F)      0.000000     0.000000     0.000000
O          1.590084    -1.184330    -2.003102
H          1.148328    -0.682878    -1.303231
H          0.913372    -1.486227    -2.592972
Gh(O)     -2.579713     0.695595     0.903205
Gh(H)     -1.766790     0.373051     0.472017
Gh(H)     -2.556590     0.408652     1.799991
Gh(O)      0.006302    -2.680277     0.762718
Gh(H)     -0.174598    -1.785268     0.559851
Gh(H)      0.461896    -3.084610     0.019470
Gh(O)     -1.603595     0.178698    -2.497753
Gh(H)     -1.541862     0.933686    -3.056288
Gh(H)     -0.984133     0.301020    -1.747949
Gh(O)      0.426525     1.345587     2.362969
Gh(H)     -0.180704     2.043739     2.250203
Gh(H)      0.386881     0.812199     1.526283

units ang
no_reorient
no_com
symmetry c1
}

set {
basis        aug-cc-pVTZ
scf_type     df
}

energy("mp2")
