MEMORY 60 GB

molecule dimer {
0 1
Gh(F)      0.000000     0.000000     0.000000
O          0.165293     0.083255    -2.915176
H          0.664980    -0.212970    -2.135442
H          0.048059     1.049442    -2.946154
Gh(O)      2.475389    -0.135408     1.309999
Gh(H)      1.638586    -0.214168     0.812850
Gh(H)      2.520190    -0.810723     1.984287
Gh(O)     -0.309101    -2.782394     0.154485
Gh(H)     -0.245961    -1.824650     0.054161
Gh(H)     -1.220250    -2.823525     0.267269
Gh(O)     -0.285980     0.810005     2.492737
Gh(H)     -0.177233     0.310410     1.663910
Gh(H)      0.145263     0.356847     3.231122
Gh(O)     -2.747590     0.888238    -0.575196
Gh(H)     -1.860637     0.738560    -0.236004
Gh(H)     -3.372019     0.406963     0.065585
Gh(O)      0.830527     2.959937    -0.256319
Gh(H)      0.269201     2.193067    -0.063366
Gh(H)      1.737656     2.830104     0.006673

units ang
no_reorient
no_com
symmetry c1
}

set {
basis        aug-cc-pVTZ
scf_type     df
}

energy("mp2")
