MEMORY 60 GB

molecule dimer {
-1 1
F          0.000000     0.000000     0.000000
O         -0.403439     1.183217     2.402459
H         -0.368174     0.518223     1.697033
H          0.232895     0.753495     2.947123
O          2.303742    -1.250421     0.525025
H          1.490227    -0.788707     0.531894
H          2.843314    -1.105727     1.310304
O         -2.398892     1.650841    -0.051992
H         -1.675125     0.929581     0.042817
H         -2.902495     1.553309     0.752774
O         -1.481475    -2.214462    -0.034526
H         -0.810065    -1.515855    -0.061717
H         -1.006129    -3.009721    -0.410769
O         -0.656255     0.245235    -2.745367
H         -0.053838    -0.438387    -3.118900
H         -0.449334     0.215360    -1.787135

units ang
no_reorient
no_com
symmetry c1
}

set {
basis        aug-cc-pVTZ
scf_type     df
}

energy("mp2")
