MEMORY 60 GB

molecule dimer {
0 1
Gh(F)      0.000000     0.000000     0.000000
Gh(O)     -1.256991    -2.655153     0.558376
Gh(H)     -0.644672    -1.885729     0.567536
Gh(H)     -1.338472    -2.882476    -0.385089
Gh(O)     -1.305576     1.251295     2.202499
Gh(H)     -0.711750     0.974728     1.504356
Gh(H)     -0.952684     2.111079     2.505476
Gh(O)     -1.829428    -0.415971    -2.107193
Gh(H)     -1.246037    -0.200344    -1.362479
Gh(H)     -2.146589     0.442551    -2.466447
Gh(O)      2.666227     0.699907     0.336488
Gh(H)      3.306908     0.099210    -0.077513
Gh(H)      1.734687     0.339624     0.260511
Gh(O)      1.906743    -2.341252    -0.205944
Gh(H)      2.501677    -2.614324    -0.890521
Gh(H)      1.283532    -1.646288    -0.583459
O          0.176288     2.561885    -1.340247
H          0.256168     1.819622    -0.726477
H         -0.688746     2.476205    -1.766219

units ang
no_reorient
no_com
symmetry c1
}

set {
basis        aug-cc-pVTZ
scf_type     df
}

energy("mp2")
