MEMORY 60 GB

molecule dimer {
-1 1
F      0.000000     0.000000     0.000000
--
0 1
O     -0.707361     2.525434    -1.575050
H     -1.618200     2.532030    -1.172278
H     -0.360557     1.715787    -1.222011
O      0.231457    -1.514785     2.454981
H      0.520078    -2.412679     2.201167
H      0.152694    -0.949314     1.706223
O      2.534888    -0.934845    -0.773892
H      1.708681    -0.455364    -0.810073
H      2.593842    -1.430710    -1.602941
O     -1.646211    -2.005263    -0.559192
H     -2.276294    -1.608534    -1.184598
H     -0.985436    -1.310462    -0.430945
O     -0.839643     1.611946     1.821990
H     -0.333256     1.129240     1.164903
H     -1.766320     1.284318     1.860799

units ang
no_reorient
no_com
symmetry c1
}

set {
basis        aug-cc-pVTZ
scf_type     df
}

energy("mp2", bsse_type="cp")
