MEMORY 60 GB

molecule dimer {
0 1
Gh(F)      0.000000     0.000000     0.000000
Gh(O)     -1.168925    -2.673082    -0.156407
Gh(H)     -0.532814    -1.976025     0.030081
Gh(H)     -0.770947    -3.520667    -0.293653
Gh(O)      1.082029     2.520347    -0.603439
Gh(H)      0.672508     1.677488    -0.480498
Gh(H)      0.457772     2.981546    -1.209019
Gh(O)     -0.925839     1.844347     1.960486
Gh(H)     -1.580309     2.274669     1.443794
Gh(H)     -0.581606     1.043570     1.437507
Gh(O)     -2.619341     0.361552    -1.053879
Gh(H)     -1.651449     0.465340    -0.947193
Gh(H)     -2.854127     1.241772    -0.755563
O          1.854349    -0.472305    -2.337972
H          2.829300    -0.270573    -2.277932
H          1.410065    -0.078132    -1.605965
Gh(O)      1.344018    -1.431921     1.858566
Gh(H)      2.072652    -1.020212     2.353761
Gh(H)      0.950753    -0.724812     1.238400

units ang
no_reorient
no_com
symmetry c1
}

set {
basis        aug-cc-pVTZ
scf_type     df
}

energy("mp2")
