MEMORY 60 GB

molecule dimer {
-1 1
F          0.000000     0.000000     0.000000
O         -1.006216    -0.656294    -2.699179
H         -1.494548     0.181956    -2.928445
H         -0.539619    -0.569324    -1.861169
O          1.610323     1.707632    -1.491867
H          1.013163     2.482512    -1.512988
H          1.164599     1.015320    -1.082122
O         -1.681240    -2.035223     1.447043
H         -1.235665    -1.300377     0.974924
H         -2.630026    -1.906729     1.111423
O          2.021760    -1.325611     0.977475
H          1.199443    -1.017688     0.585508
H          2.376563    -1.912348     0.315540

units ang
no_reorient
no_com
symmetry c1
}

set {
basis        aug-cc-pVTZ
scf_type     df
}

energy("mp2")
