MEMORY 60 GB

molecule dimer {
0 1
Gh(F)      0.000000     0.000000     0.000000
Gh(O)     -2.498532    -0.881431    -0.464596
Gh(H)     -3.244844    -0.373050    -0.742977
Gh(H)     -1.787443    -0.231783    -0.439473
Gh(O)      0.821961    -0.941013    -2.487806
Gh(H)      0.553219    -0.751966    -1.546993
Gh(H)      0.984333    -1.880222    -2.681248
Gh(O)      2.741876     1.268113     0.623068
Gh(H)      1.805546     0.967787     0.731277
Gh(H)      2.912001     1.778305     1.404663
Gh(O)      0.039880    -2.040644     1.862439
Gh(H)     -0.844297    -2.487575     1.683009
Gh(H)      0.092425    -1.237739     1.280131
O         -0.422554     1.200836     2.437095
H         -0.724798     2.111332     2.489843
H         -0.282246     0.936943     1.519701

units ang
no_reorient
no_com
symmetry c1
}

set {
basis        aug-cc-pVTZ
scf_type     df
}

energy("mp2")
