MEMORY 60 GB

molecule dimer {
0 1
Gh(F)      0.000000     0.000000     0.000000
Gh(O)     -0.580884    -1.648700     2.195241
Gh(H)     -1.020660    -1.208330     2.917618
Gh(H)     -0.253605    -1.019050     1.524375
Gh(O)      2.537363    -0.724230     0.693189
Gh(H)      1.626552    -0.593909     0.467081
Gh(H)      2.844385    -1.514828     0.175338
Gh(O)     -2.966082     0.085030    -0.257782
Gh(H)     -2.046228     0.047434     0.053577
Gh(H)     -3.144712    -0.828874    -0.456325
Gh(O)      0.685142     2.385594    -1.181765
Gh(H)      0.345072     1.543477    -0.827825
Gh(H)      1.560160     2.607602    -0.897901
O          0.514673     1.946164     2.026000
H          1.317660     1.741717     2.515660
H          0.573925     1.491257     1.189736
Gh(O)     -0.034012    -0.439230    -2.881590
Gh(H)     -0.368618    -0.315122    -1.979070
Gh(H)     -0.049734    -1.427287    -2.983019

units ang
no_reorient
no_com
symmetry c1
}

set {
basis        aug-cc-pVTZ
scf_type     df
}

energy("mp2")
