MEMORY 60 GB

molecule dimer {
-1 1
F      0.000000     0.000000     0.000000
--
0 1
O      0.267898     1.190999     2.490967
H      0.231648     0.918893     1.585672
H      1.150368     0.873921     2.774655
O      1.989861     1.908491    -0.696683
H      2.519841     1.786306     0.028333
H      1.155472     1.444242    -0.489303
O     -0.232516     0.521451    -2.764163
H     -0.239694     0.176774    -1.911270
H     -0.781563    -0.064568    -3.269363
O      2.028485    -1.193703     1.417716
H      1.489509    -1.545613     2.154059
H      1.368958    -0.882699     0.721738

units ang
no_reorient
no_com
symmetry c1
}

set {
basis        aug-cc-pVTZ
scf_type     df
}

energy("mp2", bsse_type="cp")
