MEMORY 60 GB

molecule dimer {
-1 1
Cl         0.000000     0.000000     0.000000
O         -1.308514    -3.021033     0.224570
H         -0.936905    -2.106332     0.230301
H         -1.583115    -3.224008    -0.634500
O          2.034987    -2.736438     0.261525
H          1.926419    -3.209727     1.152196
H          1.340897    -2.074538     0.255592
O          2.614152     1.974738    -1.057657
H          2.604676     1.369411    -0.325218
H          3.499309     2.340070    -1.031330
O         -0.443471     1.169568    -3.144304
H         -0.589228     0.505431    -2.398513
H         -0.814852     0.803347    -3.980457
O          3.188344    -0.067036     1.347838
H          3.603647     0.506360     1.946832
H          2.585837    -0.642943     1.833742
O          0.074816    -0.986092     3.001192
H         -0.185721    -0.495387     2.211357
H         -0.346700    -0.687598     3.778177
O         -3.028136    -0.051263     0.795317
H         -3.215716     0.852168     1.057333
H         -2.058031    -0.146230     0.730970

units ang
no_reorient
no_com
symmetry c1
}

set {
basis        aug-cc-pVTZ
scf_type     df
}

energy("mp2")
