MEMORY 60 GB

molecule dimer {
-1 1
Cl         0.000000     0.000000     0.000000
O         -2.452431     1.179516    -1.383822
H         -1.837991     0.632158    -0.895002
H         -2.120427     2.027958    -1.619128
O         -1.167744    -2.919915    -0.939325
H         -1.764740    -2.860149    -0.192311
H         -0.702783    -2.092863    -0.831785
O          1.116976     2.890657    -0.274401
H          1.074806     1.920461    -0.397918
H          1.908259     3.184212    -0.701728
O          1.222605    -0.362937    -3.063516
H          2.064077    -0.758243    -2.722188
H          0.654956    -0.035259    -2.271002

units ang
no_reorient
no_com
symmetry c1
}

set {
basis        aug-cc-pVTZ
scf_type     df
}

energy("mp2")
