MEMORY 60 GB

molecule dimer {
-1 1
Cl         0.000000     0.000000     0.000000
O          2.710010     1.677585    -1.071771
H          3.152698     1.550298    -0.212812
H          1.765317     1.467364    -1.015440
O         -3.102038    -0.017194    -1.525341
H         -3.358242     0.887782    -1.519567
H         -2.125200    -0.019232    -1.246653
O         -1.292965     2.960221    -0.132286
H         -0.950528     3.448108    -0.917646
H         -0.726725     2.174558    -0.058260

units ang
no_reorient
no_com
symmetry c1
}

set {
basis        aug-cc-pVTZ
scf_type     df
}

energy("mp2")
