MEMORY 60 GB

molecule dimer {
-1 1
Cl     0.000000     0.000000     0.000000
--
0 1
O     -2.199916    -1.571015     1.467295
H     -1.882318    -2.506238     1.325476
H     -1.614150    -0.972649     0.951732
O      0.797188    -2.893542     1.082174
H      0.638924    -1.985322     0.894663
H      1.422652    -3.264080     0.452093
O     -2.721750     0.879998    -1.804564
H     -2.687678     0.053166    -2.351965
H     -2.079379     0.700004    -1.079329
O     -0.897884    -1.728912    -2.615415
H     -0.741817    -1.169751    -1.853770
H     -0.428522    -2.544201    -2.358736

units ang
no_reorient
no_com
symmetry c1
}

set {
basis        aug-cc-pVTZ
scf_type     df
}

energy("mp2", bsse_type="cp")
