MEMORY 60 GB

molecule dimer {
-1 1
Cl         0.000000     0.000000     0.000000
O          1.774032    -1.212909    -2.452343
H          1.305888    -0.738993    -1.732187
H          2.508319    -1.629930    -2.012047
O          2.186775     2.588737     0.277671
H          1.476037     1.911683     0.339217
H          3.009960     2.191670    -0.033394
O         -1.686863     2.434953     1.365585
H         -1.173488     2.559282     2.184309
H         -1.383221     1.585374     0.970444
O         -1.491886    -1.582103    -2.320471
H         -1.016194    -0.998340    -1.638782
H         -2.114507    -0.952675    -2.708062
O         -0.791886     2.266519    -2.120884
H         -1.711508     2.191897    -2.087996
H         -0.411803     1.608549    -1.538367

units ang
no_reorient
no_com
symmetry c1
}

set {
basis        aug-cc-pVTZ
scf_type     df
}

energy("mp2")
