MEMORY 60 GB

molecule dimer {
-1 1
Cl         0.000000     0.000000     0.000000
Gh(O)      0.342923    -3.144879    -0.065421
Gh(H)      0.545982    -2.209152     0.245600
Gh(H)      0.550095    -3.627707     0.755600
Gh(O)      1.545164    -1.036990    -2.802892
Gh(H)      1.062947    -0.596055    -2.031424
Gh(H)      1.045874    -1.828531    -2.968351
Gh(O)     -2.202907    -0.562551    -2.232048
Gh(H)     -2.116080    -1.498992    -1.934838
Gh(H)     -1.695715    -0.086551    -1.598454
Gh(O)      2.746028     1.913676     0.329460
Gh(H)      1.934738     1.451620     0.279372
Gh(H)      3.036698     2.122048     1.297810

units ang
no_reorient
no_com
symmetry c1
}

set {
basis        aug-cc-pVTZ
scf_type     df
}

energy("mp2")
