MEMORY 60 GB

molecule dimer {
0 1
Gh(Cl)     0.000000     0.000000     0.000000
Gh(O)     -0.722002    -3.248013     0.354964
Gh(H)     -0.613309    -2.289253     0.433906
Gh(H)     -1.574971    -3.503131     0.680548
Gh(O)     -1.526330     2.399946     1.544144
Gh(H)     -1.173898     2.409457     2.433870
Gh(H)     -1.098273     1.621727     1.168734
Gh(O)      3.178802    -0.106216     0.211667
Gh(H)      3.377119    -0.828001     0.797087
Gh(H)      2.256728     0.086519     0.321265
O          1.888706     2.928582     0.086703
H          1.196918     2.292193     0.279175
H          1.627389     3.844402     0.410362
Gh(O)      0.992794    -0.592290     3.268874
Gh(H)      1.905677    -0.231051     3.156662
Gh(H)      0.406310    -0.199508     2.620077

units ang
no_reorient
no_com
symmetry c1
}

set {
basis        aug-cc-pVTZ
scf_type     df
}

energy("mp2")
