MEMORY 60 GB

molecule dimer {
0 1
Gh(Cl)     0.000000     0.000000     0.000000
O          2.141828    -1.926721     1.172770
H          2.506845    -2.704525     0.813382
H          1.387579    -1.666552     0.663666
Gh(O)     -1.667403    -0.134156    -2.964265
Gh(H)     -1.403386     0.216697    -2.118502
Gh(H)     -1.930230     0.658899    -3.498868
Gh(O)      1.685848     1.175691    -2.172477
Gh(H)      2.426841     0.570382    -2.393280
Gh(H)      1.275175     0.748865    -1.444869
Gh(O)     -2.150305    -0.295435     2.705843
Gh(H)     -1.521020    -0.158825     2.012721
Gh(H)     -1.597698    -0.371338     3.511263
Gh(O)     -2.367779    -2.039496    -0.941391
Gh(H)     -1.594146    -1.458780    -0.729704
Gh(H)     -2.441774    -2.608355    -0.193390

units ang
no_reorient
no_com
symmetry c1
}

set {
basis        aug-cc-pVTZ
scf_type     df
}

energy("mp2")
