MEMORY 60 GB

molecule dimer {
-1 1
Cl         0.000000     0.000000     0.000000
Gh(O)      1.742297    -2.654047     1.118768
Gh(H)      1.260670    -2.008429     0.613643
Gh(H)      2.683510    -2.425408     0.973453
Gh(O)     -0.878321    -2.549464    -2.008334
Gh(H)     -0.081928    -2.939664    -2.323798
Gh(H)     -0.714875    -1.691467    -1.528138
Gh(O)      1.749563    -0.102248     3.018640
Gh(H)      2.471494    -0.737311     3.082986
Gh(H)      1.443373    -0.105267     2.081928
Gh(O)     -0.979852     2.756798     1.607170
Gh(H)     -1.662922     2.629789     2.250272
Gh(H)     -0.638372     1.968890     1.221055
Gh(O)      1.578888     0.765967    -2.773134
Gh(H)      1.498143     0.657890    -1.802469
Gh(H)      1.511288     1.750790    -2.889389
Gh(O)     -1.085832     2.723152    -1.612034
Gh(H)     -1.583392     2.750532    -2.453881
Gh(H)     -0.723114     1.794176    -1.507763

units ang
no_reorient
no_com
symmetry c1
}

set {
basis        aug-cc-pVTZ
scf_type     df
}

energy("mp2")
