MEMORY 60 GB

molecule dimer {
-1 1
Cl     0.000000     0.000000     0.000000
--
0 1
O      1.087017    -1.938826     2.134205
H      1.242037    -1.061945     1.749816
H      0.542211    -2.402701     1.471366
O     -2.357560     1.098794     1.961526
H     -1.852852     0.324910     1.716449
H     -2.821126     1.412667     1.135968
O     -1.308863     1.084084    -2.918475
H     -0.877334     0.596674    -2.186330
H     -2.054769     0.500763    -3.101511
O      3.206515     0.353628    -1.306580
H      2.420873     0.715524    -0.930580
H      3.817413     0.545332    -0.612808
O     -1.360642    -2.838085     0.606738
H     -1.416503    -1.957719     0.217323
H     -1.726871    -2.747994     1.472142
O      1.537381    -2.218729    -1.585335
H      2.389844    -1.888690    -1.756621
H      1.246941    -1.520306    -0.997139

units ang
no_reorient
no_com
symmetry c1
}

set {
basis        aug-cc-pVTZ
scf_type     df
}

energy("mp2", bsse_type="cp")
