MEMORY 60 GB

molecule dimer {
-1 1
Cl         0.000000     0.000000     0.000000
O          1.843131    -2.928078     0.028869
H          1.734144    -3.339101    -0.815892
H          1.476043    -2.034862    -0.124140
O         -0.739325     0.185713     3.270818
H         -0.593132     0.273354     2.341271
H         -1.651095     0.407133     3.553063
O          3.026441     0.116813     0.654019
H          3.740367    -0.459401     0.917951
H          2.256261    -0.016604     1.231702
O         -3.062313     1.140314    -0.135008
H         -3.441508     1.597141     0.629278
H         -2.174978     0.899555     0.162993
O          0.894047     2.914112    -0.227527
H          1.684458     3.103862     0.278795
H          0.585305     2.078635     0.100756

units ang
no_reorient
no_com
symmetry c1
}

set {
basis        aug-cc-pVTZ
scf_type     df
}

energy("mp2")
