MEMORY 60 GB

molecule dimer {
0 1
Gh(Cl)     0.000000     0.000000     0.000000
Gh(O)     -2.944867    -0.564899    -1.779154
Gh(H)     -3.524928     0.182418    -1.593240
Gh(H)     -2.264671    -0.498491    -1.118838
Gh(O)     -2.727221     1.269441     1.357269
Gh(H)     -2.050786     0.651012     1.147961
Gh(H)     -3.477837     0.948943     0.929990
O          2.085863     1.943286     1.689448
H          2.901729     2.319648     1.384240
H          1.848548     1.201502     1.097555
Gh(O)      0.575664    -2.444183     2.291224
Gh(H)      0.275698    -1.738441     1.676952
Gh(H)     -0.166814    -2.631813     2.907550
Gh(O)     -0.427516     3.289022     1.005525
Gh(H)     -0.401676     2.496842     0.384779
Gh(H)      0.441407     3.173898     1.412293

units ang
no_reorient
no_com
symmetry c1
}

set {
basis        aug-cc-pVTZ
scf_type     df
}

energy("mp2")
