MEMORY 60 GB

molecule dimer {
0 1
Gh(Cl)     0.000000     0.000000     0.000000
Gh(O)      1.176272    -2.652134     1.006030
Gh(H)      1.873466    -2.542158     1.713725
Gh(H)      0.639279    -1.844121     1.017799
Gh(O)      3.155492     0.183050    -0.179212
Gh(H)      2.426842    -0.396814    -0.177652
Gh(H)      2.953359     0.962596     0.365673
Gh(O)     -1.682274    -0.690400    -2.903171
Gh(H)     -1.247480    -0.704847    -2.001267
Gh(H)     -2.042989    -1.552534    -3.117626
Gh(O)     -0.502562     2.885382     1.669906
Gh(H)     -0.735193     3.424883     0.886029
Gh(H)     -0.882051     2.032142     1.378365
Gh(O)      1.380074     2.285806    -1.974688
Gh(H)      0.729598     1.850939    -2.552618
Gh(H)      2.093496     1.644184    -1.762183
O         -1.374052    -0.773625     2.691235
H         -1.053332    -0.518274     1.803823
H         -2.083565    -1.408779     2.593044

units ang
no_reorient
no_com
symmetry c1
}

set {
basis        aug-cc-pVTZ
scf_type     df
}

energy("mp2")
