MEMORY 60 GB

molecule dimer {
-1 1
Cl     0.000000     0.000000     0.000000
--
0 1
O      2.463279    -1.637242     1.524697
H      2.153801    -1.174206     0.704797
H      3.424703    -1.765351     1.439217
O     -3.116776     0.013193     0.922660
H     -3.430576    -0.157029     0.005481
H     -2.173003    -0.131358     0.884899
O     -0.255395    -0.965558     3.259253
H      0.115940    -0.895008     2.380767
H     -0.515949    -0.061156     3.400927
O      0.593896     2.305977    -1.825798
H      1.456929     2.664655    -1.817872
H      0.413740     1.886953    -0.968415
O     -0.301908    -2.719564    -1.155955
H     -0.223765    -1.800429    -0.769036
H      0.140094    -2.598246    -2.035538
O     -2.739786     0.110883    -1.903292
H     -3.291889     0.616513    -2.564165
H     -1.849346     0.283247    -1.934967

units ang
no_reorient
no_com
symmetry c1
}

set {
basis        aug-cc-pVTZ
scf_type     df
}

energy("mp2", bsse_type="cp")
