MEMORY 60 GB

molecule dimer {
-1 1
Cl     0.000000     0.000000     0.000000
--
0 1
O      1.897040     2.508472     0.302538
H      1.357854     1.760957     0.096876
H      1.821429     3.097428    -0.472561
O      1.468839    -2.859802     0.731682
H      0.736236    -2.305230     0.469404
H      1.608881    -2.605813     1.655215
O     -0.432860     1.202269     3.088280
H     -0.095501     0.925593     2.231419
H     -0.432197     2.174121     3.067087
O     -2.583472    -1.827415     0.818109
H     -3.021839    -1.220259     0.255210
H     -1.746720    -1.415553     1.142264
O     -2.492733     2.189682    -0.627088
H     -2.444094     2.136340    -1.579013
H     -2.056599     1.404262    -0.404676

units ang
no_reorient
no_com
symmetry c1
}

set {
basis        aug-cc-pVTZ
scf_type     df
}

energy("mp2", bsse_type="cp")
