MEMORY 60 GB

molecule dimer {
0 1
Gh(Cl)     0.000000     0.000000     0.000000
Gh(O)     -0.817706    -1.131136     2.882151
Gh(H)     -0.479632    -0.733470     2.050849
Gh(H)     -1.773167    -1.194569     2.786172
Gh(O)     -2.015567     2.443093     0.216964
Gh(H)     -1.560235     3.293927     0.320489
Gh(H)     -1.315197     1.816524     0.339732
O         -2.013641    -2.278996    -0.054481
H         -2.837161    -1.968892    -0.423141
H         -1.488194    -1.516586     0.086967
Gh(O)      1.634075     1.411723    -2.619944
Gh(H)      0.729499     1.577369    -2.303553
Gh(H)      1.533034     1.888078    -3.433836

units ang
no_reorient
no_com
symmetry c1
}

set {
basis        aug-cc-pVTZ
scf_type     df
}

energy("mp2")
