MEMORY 60 GB

molecule dimer {
0 1
Gh(Cl)     0.000000     0.000000     0.000000
Gh(O)     -2.709595    -0.564414     1.986950
Gh(H)     -2.012609    -0.356588     1.361955
Gh(H)     -3.524735    -0.339512     1.483111
Gh(O)      0.458298    -0.295669     3.415454
Gh(H)      0.366928     0.233955     2.580124
Gh(H)      1.441111    -0.213655     3.579034
Gh(O)      0.964782     1.256879    -2.914500
Gh(H)      0.751989     0.912790    -2.038240
Gh(H)      0.228306     1.846266    -3.151398
Gh(O)     -0.817501    -3.251590     0.551563
Gh(H)     -1.223410    -3.568100    -0.255690
Gh(H)     -1.014239    -2.333206     0.731087
O          1.264464     2.704809     0.729411
H          0.706287     1.905591     0.552777
H          1.975961     2.355386     1.286056

units ang
no_reorient
no_com
symmetry c1
}

set {
basis        aug-cc-pVTZ
scf_type     df
}

energy("mp2")
