MEMORY 60 GB

molecule dimer {
-1 1
Cl         0.000000     0.000000     0.000000
O          0.024502     3.145214    -1.100846
H         -0.079884     2.231023    -0.803905
H         -0.839084     3.515903    -1.288931
O         -3.198150     0.573138    -0.927404
H         -2.286936     0.664904    -0.721780
H         -3.628705     0.671446    -0.059234
O         -0.392662    -2.420613    -2.381684
H         -0.078206    -1.721059    -1.745198
H          0.148491    -2.349436    -3.168547
O         -0.516218     0.741767    -3.194309
H          0.316690     0.901052    -3.635347
H         -0.443624     0.828168    -2.261763
O         -1.018909     1.789826     2.097121
H         -0.949530     2.709738     1.735634
H         -0.639964     1.169711     1.486154
O          2.936787     0.437537     1.380431
H          2.845975    -0.128141     2.146149
H          2.378137     0.108698     0.647245

units ang
no_reorient
no_com
symmetry c1
}

set {
basis        aug-cc-pVTZ
scf_type     df
}

energy("mp2")
