MEMORY 60 GB

molecule dimer {
-1 1
Cl     0.000000     0.000000     0.000000
--
0 1
O      2.580413    -0.085154    -1.557658
H      1.740288    -0.171482    -1.041132
H      2.991017    -0.923894    -1.427814
O     -2.460905    -2.327479    -0.521416
H     -1.544293    -2.447915    -0.236860
H     -2.917761    -3.166475    -0.428069
O      0.510044     1.531334     2.976305
H      0.808066     1.990027     2.164238
H      0.061676     0.714654     2.566184
O     -3.154292     0.989802    -0.487484
H     -3.631637     0.174371    -0.654459
H     -2.267810     0.655784    -0.465304
O     -0.248988    -1.979578    -2.367955
H      0.454594    -1.824462    -2.932228
H     -0.066118    -1.448601    -1.593092

units ang
no_reorient
no_com
symmetry c1
}

set {
basis        aug-cc-pVTZ
scf_type     df
}

energy("mp2", bsse_type="cp")
