MEMORY 60 GB

molecule dimer {
-1 1
Cl         0.000000     0.000000     0.000000
O          3.283874     0.023914     0.066002
H          2.312251    -0.077803    -0.109892
H          3.539398     0.361898    -0.833054
O         -0.063433     0.767355    -3.215659
H          0.774290     0.372773    -3.374160
H         -0.183096     0.530838    -2.284812
O         -0.156099    -2.335974    -2.061858
H         -0.228404    -1.613551    -1.460921
H          0.568802    -2.828920    -1.752202
O          1.706919    -0.782022     2.837503
H          2.308159    -0.635102     2.121010
H          1.957319    -0.183287     3.612115
O         -2.623918     1.199652    -1.550824
H         -2.518364     2.157209    -1.867397
H         -1.847456     0.943078    -1.098054
O          1.334315     2.964091    -0.575831
H          1.001079     2.053987    -0.510309
H          0.576362     3.472885    -0.217357

units ang
no_reorient
no_com
symmetry c1
}

set {
basis        aug-cc-pVTZ
scf_type     df
}

energy("mp2")
