MEMORY 60 GB

molecule dimer {
-1 1
Cl         0.000000     0.000000     0.000000
O         -0.769529    -2.966252     1.114406
H         -0.491011    -2.049040     1.060829
H         -0.099668    -3.431801     1.746687
O         -2.572451     0.785674     2.137195
H         -2.971007    -0.007188     2.353863
H         -1.967522     0.455536     1.391827
O          0.248544     0.677850     3.199615
H          0.085963     0.586761     2.244952
H          0.904498     1.336920     3.314940
O          1.375017     2.839319     0.546590
H          0.925526     1.985155     0.440289
H          1.962844     2.854615    -0.199516
O          2.555530    -2.187632     0.855224
H          2.277326    -2.669991     1.647633
H          1.863637    -1.523641     0.765483

units ang
no_reorient
no_com
symmetry c1
}

set {
basis        aug-cc-pVTZ
scf_type     df
}

energy("mp2")
