MEMORY 60 GB

molecule dimer {
0 1
Gh(Cl)     0.000000     0.000000     0.000000
Gh(O)      1.279422     1.813072     2.395684
Gh(H)      0.682919     1.310388     1.792513
Gh(H)      1.966367     1.174297     2.713761
Gh(O)      0.654636     0.433879    -3.071352
Gh(H)      0.416601     0.627639    -2.150429
Gh(H)      1.079299    -0.421006    -3.057450
Gh(O)     -2.751681    -1.662134    -0.715478
Gh(H)     -1.767176    -1.405085    -0.782986
Gh(H)     -2.615721    -2.522329    -0.314722
O         -0.054526    -2.456372     1.915545
H         -0.644121    -2.325736     2.724853
H         -0.025853    -1.607846     1.466047

units ang
no_reorient
no_com
symmetry c1
}

set {
basis        aug-cc-pVTZ
scf_type     df
}

energy("mp2")
