MEMORY 60 GB

molecule dimer {
0 1
Gh(Cl)     0.000000     0.000000     0.000000
Gh(O)     -1.646482     1.636033    -2.118452
Gh(H)     -1.306755     2.527241    -2.068860
Gh(H)     -1.347572     1.202892    -1.318347
Gh(O)      0.358450    -3.254429     0.454156
Gh(H)      0.170382    -2.323902     0.612073
Gh(H)     -0.522232    -3.667292     0.173894
O         -1.946055    -0.590932     2.381757
H         -1.388639    -0.387392     1.592721
H         -2.499547     0.181910     2.276099
Gh(O)      2.703315     1.660936     0.446614
Gh(H)      1.911369     1.537530    -0.062756
Gh(H)      3.335061     2.181112     0.003027

units ang
no_reorient
no_com
symmetry c1
}

set {
basis        aug-cc-pVTZ
scf_type     df
}

energy("mp2")
