MEMORY 60 GB

molecule dimer {
-1 1
Cl         0.000000     0.000000     0.000000
Gh(O)      3.112411    -0.510579     1.136854
Gh(H)      2.370520    -0.257961     1.690682
Gh(H)      3.753338    -1.047204     1.647019
Gh(O)     -2.960096    -1.202549     0.650023
Gh(H)     -2.871814    -2.140675     0.467832
Gh(H)     -2.150687    -0.805819     0.422640
Gh(O)     -2.286463     2.389191     0.707858
Gh(H)     -1.879680     1.516328     0.601139
Gh(H)     -3.105064     2.383095     0.187160
Gh(O)      0.222845     1.410868     2.777416
Gh(H)      0.764077     2.178359     2.611442
Gh(H)      0.077727     1.005070     1.910475

units ang
no_reorient
no_com
symmetry c1
}

set {
basis        aug-cc-pVTZ
scf_type     df
}

energy("mp2")
