MEMORY 60 GB

molecule dimer {
-1 1
Cl     0.000000     0.000000     0.000000
--
0 1
O      1.407818     2.519133    -1.259393
H      1.027117     2.592937    -2.117333
H      0.994561     1.714342    -0.954582
O      3.058161    -0.076353     0.562502
H      2.147380     0.078030     0.450617
H      3.076044    -0.918720     1.134947
O      1.402074    -2.853236    -0.379833
H      2.341986    -2.667971    -0.026692
H      0.924122    -2.036659    -0.373298
O      1.041342     1.379260     2.538507
H      0.658961     0.767611     1.918648
H      0.313750     1.643816     3.141624
O     -1.649480     2.733617     0.773527
H     -0.887604     2.167739     0.492910
H     -1.074723     3.432313     1.189528
O     -1.197686    -2.589481     1.589581
H     -1.610851    -2.489368     2.457896
H     -0.710748    -1.803117     1.436687

units ang
no_reorient
no_com
symmetry c1
}

set {
basis        aug-cc-pVTZ
scf_type     df
}

energy("mp2", bsse_type="cp")
