MEMORY 60 GB

molecule dimer {
-1 1
Cl         0.000000     0.000000     0.000000
Gh(O)     -0.626448    -3.113592     0.754314
Gh(H)     -0.239394    -2.239675     0.691889
Gh(H)     -1.537945    -2.905973     0.527826
Gh(O)      1.128243    -1.708551    -2.677056
Gh(H)      0.826606    -1.143339    -1.981423
Gh(H)      0.825023    -2.562071    -2.503514
Gh(O)      2.956940    -0.462505     1.050307
Gh(H)      2.187350    -0.102340     0.693405
Gh(H)      2.611752    -1.280708     1.398652
Gh(O)     -0.731735     3.351951     0.529715
Gh(H)     -0.503408     2.491672     0.171643
Gh(H)     -0.052956     3.760527     1.140496
Gh(O)      1.659667     1.365866    -2.584794
Gh(H)      1.265558     1.161297    -3.485117
Gh(H)      1.085125     0.911723    -1.915010

units ang
no_reorient
no_com
symmetry c1
}

set {
basis        aug-cc-pVTZ
scf_type     df
}

energy("mp2")
