MEMORY 60 GB

molecule dimer {
0 1
Gh(Cl)     0.000000     0.000000     0.000000
Gh(O)      0.601726    -2.589847     1.985255
Gh(H)      0.625102    -1.734398     1.410853
Gh(H)      0.202443    -2.311978     2.805266
Gh(O)      1.654373     2.108704     2.134861
Gh(H)      1.639621     3.020507     1.745273
Gh(H)      1.118820     1.502198     1.596433
Gh(O)     -1.660561     0.569143     2.400854
Gh(H)     -1.309075     0.235507     1.599810
Gh(H)     -1.163770     0.257029     3.177412
O         -1.490632    -2.685195    -0.853034
H         -1.987793    -3.157702    -0.165193
H         -0.816107    -2.123214    -0.480627
Gh(O)      3.208264     0.379661    -0.437533
Gh(H)      3.780426     0.542681     0.324217
Gh(H)      2.259776     0.321939    -0.255342

units ang
no_reorient
no_com
symmetry c1
}

set {
basis        aug-cc-pVTZ
scf_type     df
}

energy("mp2")
