MEMORY 60 GB

molecule dimer {
-1 1
Cl     0.000000     0.000000     0.000000
--
0 1
O      1.786944     1.711555     1.976520
H      1.111820     1.133941     1.610336
H      1.229781     2.396537     2.442747
O      1.278940     2.444591    -1.619882
H      0.965176     1.877241    -0.966811
H      1.460854     3.349589    -1.319799
O     -0.467110     0.733530    -3.068056
H     -0.325138    -0.146267    -3.313972
H     -1.312864     0.680258    -2.644071
O      2.465554    -1.889270     0.290668
H      3.217113    -1.488307     0.658887
H      1.814208    -1.180145     0.387811
O     -0.519821    -0.088559     3.075289
H     -0.722845     0.815865     3.291041
H     -0.491445    -0.012457     2.085786
O     -2.750066     0.488210    -1.600511
H     -2.980126    -0.008406    -0.777965
H     -3.594984     0.525279    -2.067696

units ang
no_reorient
no_com
symmetry c1
}

set {
basis        aug-cc-pVTZ
scf_type     df
}

energy("mp2", bsse_type="cp")
