MEMORY 60 GB

molecule dimer {
-1 1
Cl         0.000000     0.000000     0.000000
O          2.151842     1.930427    -1.340171
H          1.350694     1.443964    -1.092752
H          2.600730     2.059208    -0.557280
O         -0.845603    -1.954378    -2.400622
H         -0.576408    -1.381923    -1.685351
H         -0.891883    -2.856008    -2.074388
O         -2.695475     1.706640    -1.327933
H         -1.902725     1.294081    -0.924358
H         -2.569155     2.694294    -1.426749
O         -2.474764    -2.030755     0.960515
H         -3.239782    -1.595363     0.512300
H         -1.802427    -1.355761     0.798361
O         -1.355417     2.160929     1.846580
H         -0.713707     2.483561     2.470183
H         -1.000521     1.322098     1.546916

units ang
no_reorient
no_com
symmetry c1
}

set {
basis        aug-cc-pVTZ
scf_type     df
}

energy("mp2")
