MEMORY 60 GB

molecule dimer {
0 1
Gh(Cl)     0.000000     0.000000     0.000000
Gh(O)     -1.229184    -2.993822     0.453137
Gh(H)     -0.418614    -3.395812     0.092820
Gh(H)     -1.013280    -2.074811     0.585463
Gh(O)     -1.235222    -1.766810    -2.572586
Gh(H)     -2.178163    -1.662201    -2.417220
Gh(H)     -0.769873    -1.718371    -1.664414
Gh(O)     -1.384432    -0.260144     2.883153
Gh(H)     -0.766609    -0.589156     3.510778
Gh(H)     -0.859119    -0.152996     2.083720
O          1.607896     0.813395    -2.710175
H          2.315273     1.449805    -2.414289
H          1.015105     0.595265    -1.995542
Gh(O)      1.117807     2.673918     1.419992
Gh(H)      1.158491     1.823418     1.031762
Gh(H)      0.169419     2.693657     1.399060
Gh(O)     -2.874762     0.414810    -1.653760
Gh(H)     -2.035974     0.467676    -1.186949
Gh(H)     -3.362591    -0.291211    -1.125177

units ang
no_reorient
no_com
symmetry c1
}

set {
basis        aug-cc-pVTZ
scf_type     df
}

energy("mp2")
