MEMORY 60 GB

molecule dimer {
-1 1
Cl         0.000000     0.000000     0.000000
O         -2.041021    -2.196464    -1.333745
H         -1.300794    -2.029781    -0.728894
H         -2.698392    -2.708355    -0.840419
O          0.419223     0.084825    -3.085711
H         -0.280779     0.277678    -3.790691
H          0.077234     0.159042    -2.208543
O          3.090762    -0.717603    -0.627277
H          3.080613    -1.289849    -1.410804
H          2.118014    -0.454394    -0.575587
O          0.777671     3.142833     0.471574
H          1.633570     3.312266     0.051366
H          0.542632     2.198669     0.371825

units ang
no_reorient
no_com
symmetry c1
}

set {
basis        aug-cc-pVTZ
scf_type     df
}

energy("mp2")
