MEMORY 60 GB

molecule dimer {
-1 1
Cl         0.000000     0.000000     0.000000
O         -2.071837    -1.566407    -2.094834
H         -2.804132    -1.909173    -1.581457
H         -1.575661    -1.017210    -1.506295
O         -2.835162    -1.380871     1.365181
H         -2.100127    -0.901437     0.939824
H         -3.623037    -0.817636     1.359899
O         -0.436252     1.643652    -2.926169
H         -0.441176     1.305425    -2.001804
H         -0.243187     0.850829    -3.475916
O          2.956243     0.741991     0.983113
H          2.865237     1.197444     0.143693
H          2.115532     0.354191     1.203109

units ang
no_reorient
no_com
symmetry c1
}

set {
basis        aug-cc-pVTZ
scf_type     df
}

energy("mp2")
