MEMORY 60 GB

molecule dimer {
0 1
Gh(Cl)     0.000000     0.000000     0.000000
Gh(O)      2.217451     0.173132    -2.196728
Gh(H)      1.450489     0.085813    -1.601960
Gh(H)      2.136415     1.036921    -2.632012
Gh(O)     -3.104951     1.312552    -0.666533
Gh(H)     -2.224123     0.928576    -0.487843
Gh(H)     -3.617532     0.562843    -0.908656
O          1.272227     2.966293     0.141325
H          0.856129     3.522110     0.878231
H          0.642780     2.184762     0.155358
Gh(O)      0.216100     0.918779     3.064477
Gh(H)      0.501188     0.528894     2.252647
Gh(H)     -0.506248     0.390525     3.374447
Gh(O)      1.294073    -2.891435     1.095122
Gh(H)      1.863156    -3.654697     1.184616
Gh(H)      1.395565    -2.604001     0.149232
Gh(O)     -1.460884    -1.361846    -2.351721
Gh(H)     -0.940849    -0.704004    -1.930802
Gh(H)     -1.693945    -0.968444    -3.207386

units ang
no_reorient
no_com
symmetry c1
}

set {
basis        aug-cc-pVTZ
scf_type     df
}

energy("mp2")
