MEMORY 60 GB

molecule dimer {
-1 1
Cl         0.000000     0.000000     0.000000
O         -3.038300     0.134622    -1.043661
H         -3.193085    -0.817042    -1.081050
H         -2.168895     0.204810    -0.622911
O          0.823564     1.469194    -2.905263
H          0.448094     2.356201    -2.904934
H          0.575772     1.029626    -2.123683
O          0.828626     1.168457     2.974264
H          0.970257     2.138629     3.098186
H          0.641650     1.018427     2.076444
O         -0.318478    -2.578120     1.970563
H         -0.430935    -1.762301     1.500686
H          0.695700    -2.767996     1.959541
O         -0.851147     3.093003    -0.308058
H         -0.095872     3.522305     0.160168
H         -0.635313     2.177807    -0.311008

units ang
no_reorient
no_com
symmetry c1
}

set {
basis        aug-cc-pVTZ
scf_type     df
}

energy("mp2")
