MEMORY 60 GB

molecule dimer {
0 1
Gh(Cl)     0.000000     0.000000     0.000000
Gh(O)      2.577144     1.301097    -1.507566
Gh(H)      1.636751     1.082512    -1.310522
Gh(H)      2.493026     1.546902    -2.431710
Gh(O)     -0.803884    -0.114309     3.230273
Gh(H)     -1.032596    -0.160666     2.314983
Gh(H)     -1.231357    -0.797408     3.797174
Gh(O)      0.843661    -2.286358    -2.084704
Gh(H)      0.687224    -1.478250    -1.561391
Gh(H)      0.748808    -1.967004    -2.989697
O         -3.119480    -1.368652    -0.412857
H         -2.259889    -0.968028    -0.211314
H         -2.868990    -2.275884    -0.520071

units ang
no_reorient
no_com
symmetry c1
}

set {
basis        aug-cc-pVTZ
scf_type     df
}

energy("mp2")
