MEMORY 60 GB

molecule dimer {
-1 1
Cl         0.000000     0.000000     0.000000
O          1.572535     2.984313     0.080535
H          2.483152     2.774963     0.044021
H          1.091164     2.083829     0.086158
O         -2.519770     0.473353     1.764939
H         -1.730664     0.352182     1.242951
H         -2.351355     1.328225     2.177357
O          1.097544    -1.383699     2.955254
H          0.572761    -1.058492     3.732723
H          0.582499    -1.021529     2.224847
O         -2.152007     2.124199    -0.978722
H         -1.802804     1.460648    -0.427201
H         -1.664805     1.959459    -1.761428
O          2.011060     0.105217    -2.783367
H          1.274497     0.182662    -2.166724
H          2.754003    -0.550445    -2.510663

units ang
no_reorient
no_com
symmetry c1
}

set {
basis        aug-cc-pVTZ
scf_type     df
}

energy("mp2")
