MEMORY 60 GB

molecule dimer {
0 1
Gh(Cl)     0.000000     0.000000     0.000000
Gh(O)      0.312084    -2.150104    -2.377592
Gh(H)     -0.296467    -2.021026    -3.090852
Gh(H)     -0.022577    -1.598504    -1.659883
Gh(O)      1.889572     0.729427    -2.641984
Gh(H)      2.634422     0.109919    -2.606851
Gh(H)      1.389837     0.523187    -1.827466
O         -2.762003     1.925216     0.336061
H         -2.814583     2.737091    -0.091539
H         -1.965756     1.584775    -0.015239
Gh(O)      0.811586     2.751185     1.027694
Gh(H)      1.119303     3.426267     0.397995
Gh(H)      0.691782     1.988673     0.474040
Gh(O)      2.965938    -0.228637     0.943152
Gh(H)      2.234889     0.224653     0.518219
Gh(H)      2.499928    -0.824590     1.525148

units ang
no_reorient
no_com
symmetry c1
}

set {
basis        aug-cc-pVTZ
scf_type     df
}

energy("mp2")
