MEMORY 60 GB

molecule dimer {
0 1
Gh(Cl)     0.000000     0.000000     0.000000
Gh(O)     -1.699511    -2.602859     1.388887
Gh(H)     -1.009799    -3.281339     1.476309
Gh(H)     -1.370004    -1.833268     0.834273
Gh(O)      2.047824    -2.283636     1.627081
Gh(H)      2.928790    -2.527615     1.228704
Gh(H)      2.063927    -1.332444     1.617770
O         -2.694511     1.035503     1.396479
H         -3.182629     0.216460     1.160035
H         -1.779856     0.860726     1.190389
Gh(O)      1.374557    -2.211274    -1.879035
Gh(H)      1.185050    -3.173037    -1.766271
Gh(H)      1.030023    -1.776112    -1.054907
Gh(O)     -1.324787    -2.152761    -2.403691
Gh(H)     -0.760749    -1.736481    -1.759069
Gh(H)     -0.832269    -2.768136    -2.931446

units ang
no_reorient
no_com
symmetry c1
}

set {
basis        aug-cc-pVTZ
scf_type     df
}

energy("mp2")
