MEMORY 60 GB

molecule dimer {
-1 1
Cl         0.000000     0.000000     0.000000
Gh(O)     -0.798897     3.124496    -0.215681
Gh(H)      0.060559     3.616307    -0.380398
Gh(H)     -0.556490     2.210170     0.138435
Gh(O)      2.730753    -0.341451    -2.110045
Gh(H)      2.680631    -1.003483    -1.437785
Gh(H)      1.867978    -0.486660    -2.459935
Gh(O)      2.428296    -0.475128     2.348279
Gh(H)      1.839286    -0.737724     1.638816
Gh(H)      2.905468    -1.272764     2.554222
Gh(O)     -1.218819     0.750935     2.669050
Gh(H)     -1.171669     0.087468     3.394068
Gh(H)     -0.655150     0.411680     1.957964
Gh(O)     -0.679205    -3.054936    -0.078274
Gh(H)     -0.469217    -2.104139    -0.091012
Gh(H)     -0.608392    -3.314175    -1.020973

units ang
no_reorient
no_com
symmetry c1
}

set {
basis        aug-cc-pVTZ
scf_type     df
}

energy("mp2")
