MEMORY 60 GB

molecule dimer {
-1 1
Cl         0.000000     0.000000     0.000000
O         -0.853615    -3.073938     0.001422
H         -0.700047    -2.131269     0.018283
H         -0.736767    -3.342697     0.936492
O         -1.861729    -0.237708    -2.894943
H         -2.044505     0.088802    -2.038781
H         -0.909613    -0.441097    -2.789066
O          1.901996    -2.555862     1.121538
H          1.181856    -3.161835     1.015908
H          1.568338    -1.739261     0.697667
O         -0.317986     0.148115     3.343688
H          0.298703    -0.298440     3.876186
H         -0.036324     0.020454     2.421803
O         -2.717002     0.216750     1.453755
H         -2.702718    -0.603026     1.933237
H         -1.809585     0.403824     1.178356

units ang
no_reorient
no_com
symmetry c1
}

set {
basis        aug-cc-pVTZ
scf_type     df
}

energy("mp2")
