MEMORY 60 GB

molecule dimer {
0 1
Gh(Cl)     0.000000     0.000000     0.000000
Gh(O)      2.306524     0.633217    -2.188513
Gh(H)      1.570454     0.370574    -1.615926
Gh(H)      2.887146    -0.151513    -2.257538
Gh(O)      0.078149     0.201119     3.270859
Gh(H)      0.255800     0.302782     2.290721
Gh(H)     -0.317832     0.962546     3.712858
Gh(O)      0.602014    -3.026089     0.733427
Gh(H)     -0.271511    -3.137610     1.226318
Gh(H)      0.722809    -2.074794     0.669439
O          2.057172     1.804508     1.691988
H          1.703814     1.155732     1.058885
H          2.867329     1.350957     1.953438

units ang
no_reorient
no_com
symmetry c1
}

set {
basis        aug-cc-pVTZ
scf_type     df
}

energy("mp2")
