MEMORY 60 GB

molecule dimer {
0 1
Gh(Cl)     0.000000     0.000000     0.000000
Gh(O)      2.976125    -0.550762     0.397420
Gh(H)      3.132872     0.391178     0.501278
Gh(H)      2.012343    -0.588243     0.284471
Gh(O)     -1.163506    -2.546937     1.446773
Gh(H)     -1.325678    -2.254056     2.392364
Gh(H)     -0.300251    -2.204268     1.183553
Gh(O)     -0.221715    -2.704216    -1.930969
Gh(H)     -1.057768    -2.253285    -1.542346
Gh(H)      0.064879    -2.081925    -2.649334
O         -2.291141     1.148067    -1.830105
H         -1.493164     0.913587    -1.305973
H         -1.983377     1.515748    -2.705823
Gh(O)      0.895961     1.894020     2.415542
Gh(H)      0.701813     1.480611     1.545901
Gh(H)      1.152438     2.807136     2.240683
Gh(O)      0.316353     2.781308    -1.575780
Gh(H)      0.288134     1.911789    -1.139865
Gh(H)      0.658674     3.383529    -0.879089

units ang
no_reorient
no_com
symmetry c1
}

set {
basis        aug-cc-pVTZ
scf_type     df
}

energy("mp2")
