MEMORY 60 GB

molecule dimer {
0 1
Gh(Cl)     0.000000     0.000000     0.000000
Gh(O)      1.422099    -1.987304     2.148825
Gh(H)      1.064340    -1.506450     1.399804
Gh(H)      2.368545    -1.867599     2.083815
Gh(O)     -2.865467    -0.850270     1.171661
Gh(H)     -2.084324    -0.528310     0.724260
Gh(H)     -3.378232    -0.065480     1.313502
O         -2.426888     2.264567     1.019413
H         -1.479134     2.101066     1.074612
H         -2.670735     1.963972     0.116288
Gh(O)      0.376785     2.007354     2.598138
Gh(H)      1.072877     2.112276     3.311169
Gh(H)      0.426693     1.248381     2.049427

units ang
no_reorient
no_com
symmetry c1
}

set {
basis        aug-cc-pVTZ
scf_type     df
}

energy("mp2")
