MEMORY 60 GB

molecule dimer {
0 1
Gh(Cl)     0.000000     0.000000     0.000000
Gh(O)      2.247823     1.054428     2.091133
Gh(H)      1.975481     0.561471     1.348335
Gh(H)      2.892441     0.520458     2.606351
Gh(O)      0.349162    -2.885324     1.690405
Gh(H)      0.406239    -3.703972     1.217566
Gh(H)      0.590132    -2.160564     1.081020
O          1.622947     1.853072    -2.013003
H          2.373746     1.475204    -2.405921
H          1.243024     1.154997    -1.444838

units ang
no_reorient
no_com
symmetry c1
}

set {
basis        aug-cc-pVTZ
scf_type     df
}

energy("mp2")
