MEMORY 60 GB

molecule dimer {
-1 1
Cl     0.000000     0.000000     0.000000
--
0 1
O      2.094734     2.420118    -0.988704
H      2.288132     3.072303    -0.322075
H      1.277471     1.962329    -0.721292
O      1.301190    -0.283191    -2.893486
H      0.711077     0.041554    -3.544511
H      0.857715    -0.109161    -2.051104
O     -1.945290     2.393035     1.309219
H     -2.923087     2.279788     1.331312
H     -1.540510     1.545688     0.980189
O      0.845936    -3.031399    -0.329358
H      0.345432    -2.188035    -0.437677
H      1.647577    -2.766488    -0.821843
O      1.967141     1.310230     2.500265
H      1.474350     0.935107     1.769862
H      2.839433     0.878062     2.441727

units ang
no_reorient
no_com
symmetry c1
}

set {
basis        aug-cc-pVTZ
scf_type     df
}

energy("mp2", bsse_type="cp")
