MEMORY 60 GB

molecule dimer {
0 1
Gh(Cl)     0.000000     0.000000     0.000000
O         -2.600905     1.445698    -1.428595
H         -1.790172     1.295780    -0.990803
H         -3.218459     1.075372    -0.808474
Gh(O)      2.556836    -0.273321    -1.884433
Gh(H)      2.745727     0.656644    -1.914035
Gh(H)      1.812438    -0.439596    -1.281958
Gh(O)      0.128714     1.450045    -3.075572
Gh(H)     -0.229456     0.608282    -2.936136
Gh(H)     -0.138427     1.712452    -3.979438
Gh(O)     -2.771257    -1.686210    -0.586807
Gh(H)     -3.517746    -1.038339    -0.414869
Gh(H)     -1.928754    -1.210524    -0.518702
Gh(O)      0.192091    -2.999964     0.775908
Gh(H)     -0.347009    -3.250786     1.545106
Gh(H)     -0.004976    -2.092468     0.545800

units ang
no_reorient
no_com
symmetry c1
}

set {
basis        aug-cc-pVTZ
scf_type     df
}

energy("mp2")
