MEMORY 60 GB

molecule dimer {
0 1
Gh(Cl)     0.000000     0.000000     0.000000
O          2.039085    -2.462644     0.200988
H          1.844667    -1.848434    -0.539502
H          2.791815    -2.941769    -0.104662
Gh(O)      2.498699     1.474611    -1.093244
Gh(H)      2.371003     1.199564    -1.994894
Gh(H)      1.745902     1.188647    -0.615483
Gh(O)      2.394840    -0.079249     2.053779
Gh(H)      1.775513     0.099764     2.735700
Gh(H)      1.874464    -0.207619     1.256205
Gh(O)     -0.383324     2.887532     1.419545
Gh(H)     -0.168626     2.055517     0.996479
Gh(H)      0.449266     3.337289     1.431516
Gh(O)     -2.136232     0.804329    -2.001926
Gh(H)     -2.664027     1.566950    -2.332419
Gh(H)     -1.432285     1.115994    -1.486120

units ang
no_reorient
no_com
symmetry c1
}

set {
basis        aug-cc-pVTZ
scf_type     df
}

energy("mp2")
