MEMORY 60 GB

molecule dimer {
0 1
Gh(Cl)     0.000000     0.000000     0.000000
O          2.741234     0.738472    -1.525475
H          2.030876     0.591915    -0.837522
H          3.603201     0.343611    -1.225902
Gh(O)     -1.282461     2.745085     1.157741
Gh(H)     -1.948791     2.416369     1.805657
Gh(H)     -0.745954     1.941353     0.995102
Gh(O)     -2.297413    -1.049486     2.333506
Gh(H)     -2.862620    -0.996762     1.560954
Gh(H)     -1.356740    -0.962436     2.174113
Gh(O)     -1.160282     1.516406    -2.408583
Gh(H)     -0.693222     0.915110    -1.786235
Gh(H)     -0.649383     2.316099    -2.294649
Gh(O)      1.852777    -0.587624     2.593331
Gh(H)      2.415237    -1.388943     2.530648
Gh(H)      1.630884    -0.133154     1.758059

units ang
no_reorient
no_com
symmetry c1
}

set {
basis        aug-cc-pVTZ
scf_type     df
}

energy("mp2")
