MEMORY 60 GB

molecule dimer {
-1 1
Cl     0.000000     0.000000     0.000000
--
0 1
O      0.566870    -1.819815     2.698297
H     -0.078974    -2.614193     2.791088
H      0.377088    -1.191194     1.959657
O      2.279576     1.369045    -2.090596
H      1.885928     0.879649    -1.319566
H      2.785146     0.699748    -2.546213
O     -0.408105    -3.449801    -0.045884
H     -0.491537    -2.483954    -0.136913
H     -1.054600    -3.756136    -0.690336
O     -3.121446    -0.979678     0.008183
H     -3.306620    -1.940481     0.152311
H     -2.177854    -0.788117    -0.090022
O     -1.054861     1.302381     3.016395
H     -1.018792     0.388964     2.938793
H     -0.449422     1.623404     2.330560

units ang
no_reorient
no_com
symmetry c1
}

set {
basis        aug-cc-pVTZ
scf_type     df
}

energy("mp2", bsse_type="cp")
