MEMORY 60 GB

molecule dimer {
0 1
Gh(Cl)     0.000000     0.000000     0.000000
Gh(O)      2.811402     1.308917    -0.646326
Gh(H)      3.234332     1.474802     0.204983
Gh(H)      1.945733     1.073091    -0.492024
Gh(O)     -0.273559     0.917934     3.152329
Gh(H)      0.136827     0.212370     3.671469
Gh(H)     -0.689970     0.389828     2.431398
Gh(O)      1.522141    -0.653873    -2.674542
Gh(H)      1.073915    -0.132792    -3.377375
Gh(H)      0.886423    -0.702472    -1.962450
Gh(O)     -2.674822     0.576166    -1.781221
Gh(H)     -1.954057     0.567322    -1.167115
Gh(H)     -2.728762     1.502340    -2.123526
O          0.142016    -3.064361    -0.765164
H          0.999542    -3.491946    -0.855143
H          0.263409    -2.296723    -0.197218

units ang
no_reorient
no_com
symmetry c1
}

set {
basis        aug-cc-pVTZ
scf_type     df
}

energy("mp2")
