MEMORY 60 GB

molecule dimer {
-1 1
Cl         0.000000     0.000000     0.000000
O          0.523611    -3.326317    -0.270829
H          1.371760    -3.541864    -0.752050
H          0.520142    -2.413760    -0.485172
O         -0.566034    -1.015128    -2.856991
H         -1.423681    -1.463563    -2.743114
H         -0.308453    -0.737514    -1.960884
O          1.763372     1.458735    -2.322450
H          1.440294     0.911291    -1.581146
H          2.304948     0.879717    -2.772692
O         -2.397826    -1.807276     1.763323
H         -1.510550    -2.113811     1.658959
H         -2.434657    -1.289060     0.981632

units ang
no_reorient
no_com
symmetry c1
}

set {
basis        aug-cc-pVTZ
scf_type     df
}

energy("mp2")
