MEMORY 60 GB

molecule dimer {
0 1
Gh(Cl)     0.000000     0.000000     0.000000
Gh(O)      3.015981     0.151241    -1.457305
Gh(H)      2.845971    -0.567435    -2.049500
Gh(H)      2.230828     0.149298    -0.843213
O         -2.797673    -0.644207    -1.757639
H         -2.491546    -1.380346    -2.302014
H         -2.015250    -0.495737    -1.259297
Gh(O)     -0.715759     3.330850    -0.769336
Gh(H)      0.052831     3.505661    -0.203645
Gh(H)     -0.556393     2.470762    -1.223557
Gh(O)      0.652205     0.435816    -3.215109
Gh(H)      1.085218     1.200515    -2.995505
Gh(H)      0.387193     0.144769    -2.312401
Gh(O)      1.503331     1.130459     2.879779
Gh(H)      1.109970     0.660961     2.083685
Gh(H)      1.604155     0.401707     3.533176
Gh(O)      0.517922    -3.056007    -0.636675
Gh(H)     -0.210470    -3.438063    -1.173663
Gh(H)      0.434987    -2.108656    -0.643081

units ang
no_reorient
no_com
symmetry c1
}

set {
basis        aug-cc-pVTZ
scf_type     df
}

energy("mp2")
