MEMORY 60 GB

molecule dimer {
0 1
Gh(Cl)     0.000000     0.000000     0.000000
Gh(O)      0.823380    -1.352973    -3.021871
Gh(H)      1.752854    -1.586619    -2.681171
Gh(H)      0.487876    -0.873730    -2.261775
O          2.523281     0.075105     2.141624
H          2.081558    -0.483417     2.754013
H          1.877416     0.285763     1.482632
Gh(O)      2.650784     1.254153    -1.136163
Gh(H)      2.401662     1.605478    -1.971241
Gh(H)      1.924731     0.699704    -0.891412
Gh(O)     -0.306264     2.928050     0.541310
Gh(H)      0.380642     3.308514     1.104799
Gh(H)      0.073139     2.191299     0.141775
Gh(O)     -1.011167     1.396698    -2.618018
Gh(H)     -0.727764     2.280068    -2.348939
Gh(H)     -0.878256     0.893634    -1.790117

units ang
no_reorient
no_com
symmetry c1
}

set {
basis        aug-cc-pVTZ
scf_type     df
}

energy("mp2")
