MEMORY 60 GB

molecule dimer {
-1 1
Cl     0.000000     0.000000     0.000000
--
0 1
O     -2.639249    -2.043355    -0.424183
H     -1.808856    -1.471762    -0.429724
H     -2.641062    -2.333764    -1.316977
O      0.403629    -2.390235     2.477646
H     -0.432481    -2.907837     2.347215
H      0.412111    -1.672041     1.879690
O     -0.714179     0.377929    -3.329396
H     -1.198332    -0.133274    -2.628707
H     -0.377953     1.213673    -2.933940
O     -2.634641     1.896873     0.738049
H     -1.800704     1.389428     0.628177
H     -2.528308     2.751205     0.372104
O      0.783633    -2.645861    -1.980641
H      0.893785    -2.060143    -2.776260
H      0.469594    -2.121247    -1.272007

units ang
no_reorient
no_com
symmetry c1
}

set {
basis        aug-cc-pVTZ
scf_type     df
}

energy("mp2", bsse_type="cp")
