MEMORY 60 GB

molecule dimer {
-1 1
Cl         0.000000     0.000000     0.000000
O          1.771129     2.489187     0.169336
H          1.379107     1.608893     0.191284
H          1.074826     3.009005    -0.305359
O         -0.595761    -2.485321     1.681379
H         -0.839779    -2.280443     2.596276
H         -0.383113    -1.560361     1.328127
O         -3.305344     0.023545    -0.246950
H         -3.552244    -0.023220    -1.134455
H         -2.322919     0.116370    -0.213788

units ang
no_reorient
no_com
symmetry c1
}

set {
basis        aug-cc-pVTZ
scf_type     df
}

energy("mp2")
