MEMORY 60 GB

molecule dimer {
-1 1
Cl         0.000000     0.000000     0.000000
Gh(O)      3.272233    -0.339230     0.465325
Gh(H)      2.339576    -0.145698     0.219241
Gh(H)      3.571731     0.299655     1.166361
Gh(O)      0.347877     2.802529     1.428865
Gh(H)     -0.125574     3.335043     0.784056
Gh(H)      0.515121     1.891836     1.111430
Gh(O)      0.954444    -2.748896     1.108647
Gh(H)      1.725578    -3.078670     0.722052
Gh(H)      0.880431    -1.768924     0.971943
Gh(O)     -0.111136    -0.616714     3.117009
Gh(H)     -0.296790     0.160491     3.738680
Gh(H)     -0.092426    -0.202776     2.240970
Gh(O)     -2.552283     1.901749     0.193843
Gh(H)     -1.976931     1.085456    -0.094548
Gh(H)     -2.580680     1.825291     1.177092

units ang
no_reorient
no_com
symmetry c1
}

set {
basis        aug-cc-pVTZ
scf_type     df
}

energy("mp2")
