MEMORY 60 GB

molecule dimer {
0 1
Gh(Cl)     0.000000     0.000000     0.000000
Gh(O)      1.401814     3.004279    -0.293739
Gh(H)      1.286935     2.071480    -0.547510
Gh(H)      0.587179     3.446356    -0.499197
O          2.350678    -2.241718     0.338880
H          1.723621    -1.571284     0.204117
H          2.824680    -2.355887    -0.493503
Gh(O)      1.245199    -0.336761     2.824372
Gh(H)      0.470260     0.235926     2.905006
Gh(H)      1.361956    -0.347042     1.858412
Gh(O)     -1.541109    -2.418693     1.370070
Gh(H)     -0.925165    -1.895960     0.786732
Gh(H)     -2.220385    -1.862267     1.722704

units ang
no_reorient
no_com
symmetry c1
}

set {
basis        aug-cc-pVTZ
scf_type     df
}

energy("mp2")
