MEMORY 60 GB

molecule dimer {
0 1
Gh(Cl)     0.000000     0.000000     0.000000
O          3.232758    -0.679143     0.998305
H          2.352463    -0.253635     0.918000
H          3.312977    -1.122656     1.834457
Gh(O)     -2.454936    -1.285230     1.810301
Gh(H)     -2.196769    -2.160432     1.613182
Gh(H)     -1.954067    -0.746562     1.210287
Gh(O)      0.873783     0.373195    -3.146906
Gh(H)      0.360272     0.651094    -2.330817
Gh(H)      0.607163    -0.517887    -3.260182
Gh(O)     -1.303045     2.387289    -1.279544
Gh(H)     -0.857699     1.743440    -0.735850
Gh(H)     -1.694295     1.907056    -2.005066
Gh(O)      0.564214     2.052023     2.184843
Gh(H)      1.485460     2.275701     2.191810
Gh(H)      0.459226     1.382168     1.506702

units ang
no_reorient
no_com
symmetry c1
}

set {
basis        aug-cc-pVTZ
scf_type     df
}

energy("mp2")
