MEMORY 60 GB

molecule dimer {
0 1
Gh(Cl)     0.000000     0.000000     0.000000
O          2.004466    -0.496177     2.546536
H          2.585244    -1.154785     2.189831
H          1.363421    -0.266412     1.830507
Gh(O)      2.479580    -1.598125    -1.227379
Gh(H)      1.827334    -1.093465    -0.781736
Gh(H)      2.036467    -2.371329    -1.587810
Gh(O)     -2.771537     0.837457     1.822875
Gh(H)     -3.237440     0.820329     0.989508
Gh(H)     -2.323566     0.003383     1.867055
Gh(O)     -0.416174    -1.379225    -3.003309
Gh(H)     -0.168991    -0.896023    -2.169454
Gh(H)      0.155754    -2.140456    -3.062651

units ang
no_reorient
no_com
symmetry c1
}

set {
basis        aug-cc-pVTZ
scf_type     df
}

energy("mp2")
