MEMORY 60 GB

molecule dimer {
0 1
Gh(Cl)     0.000000     0.000000     0.000000
Gh(O)      2.347456    -0.658120     1.836924
Gh(H)      1.503461    -0.342108     1.498010
Gh(H)      3.023913    -0.371611     1.184006
Gh(O)      1.476974    -2.981181    -0.401283
Gh(H)      1.428877    -2.124141     0.044335
Gh(H)      0.987391    -2.973805    -1.261521
Gh(O)      1.221048    -0.028193    -3.177290
Gh(H)      0.809868    -0.267015    -2.372466
Gh(H)      1.740949     0.746334    -2.920550
Gh(O)     -0.343156     1.510349     2.607781
Gh(H)     -0.163751     0.855136     1.877864
Gh(H)      0.291671     2.275670     2.361551
O         -1.949830    -2.734697     0.889703
H         -2.584009    -2.204144     1.367376
H         -1.302316    -2.065112     0.692981

units ang
no_reorient
no_com
symmetry c1
}

set {
basis        aug-cc-pVTZ
scf_type     df
}

energy("mp2")
