MEMORY 60 GB

molecule dimer {
0 1
Gh(Cl)     0.000000     0.000000     0.000000
O          2.766194    -0.990872     1.334512
H          3.039003    -1.669598     0.704789
H          1.972907    -0.601045     0.984498
Gh(O)      1.954164    -2.033443    -1.248793
Gh(H)      2.754129    -1.997806    -1.786639
Gh(H)      1.469395    -1.174972    -1.109340
Gh(O)      0.724065     0.495149     3.233155
Gh(H)      0.262707     0.210693     2.462424
Gh(H)      1.506162    -0.008643     3.265816
Gh(O)     -2.376968     0.795770    -2.094079
Gh(H)     -2.494931     0.396759    -1.199738
Gh(H)     -2.033227     1.702484    -1.954161
Gh(O)     -1.121666    -3.050928     0.529231
Gh(H)     -0.453203    -2.425550     0.260200
Gh(H)     -1.712015    -3.186147    -0.206178

units ang
no_reorient
no_com
symmetry c1
}

set {
basis        aug-cc-pVTZ
scf_type     df
}

energy("mp2")
