MEMORY 60 GB

molecule dimer {
-1 1
Br         0.000000     0.000000     0.000000
Gh(O)     -0.999022    -2.679634    -1.724013
Gh(H)     -0.678718    -2.037465    -1.171070
Gh(H)     -1.864558    -2.807700    -1.354503
Gh(O)      2.580843    -1.796834    -1.300260
Gh(H)      2.444330    -2.737774    -1.082597
Gh(H)      1.984606    -1.292710    -0.800320
Gh(O)      0.716653    -2.040909     2.401316
Gh(H)      0.606530    -1.564525     1.571865
Gh(H)      0.320539    -1.488156     3.042768

units ang
no_reorient
no_com
symmetry c1
}

set {
basis        aug-cc-pVTZ
scf_type     df
}

energy("mp2")
