MEMORY 60 GB

molecule dimer {
-1 1
Br         0.000000     0.000000     0.000000
Gh(O)      0.781449    -0.807907    -3.361660
Gh(H)      1.592848    -1.345644    -3.304069
Gh(H)      0.648406    -0.568569    -2.400584
Gh(O)      2.510193    -1.908503     0.397343
Gh(H)      1.800244    -1.321266     0.041421
Gh(H)      2.224768    -2.811754     0.197244
Gh(O)      1.731416    -0.150931     2.710083
Gh(H)      2.460238     0.314986     2.378625
Gh(H)      1.139946    -0.218518     1.919575
Gh(O)      2.207844     2.294641     0.275850
Gh(H)      1.617671     1.545812     0.305669
Gh(H)      2.353701     2.388285    -0.692227

units ang
no_reorient
no_com
symmetry c1
}

set {
basis        aug-cc-pVTZ
scf_type     df
}

energy("mp2")
