MEMORY 60 GB

molecule dimer {
0 1
Gh(Br)     0.000000     0.000000     0.000000
O          1.500307     0.811394    -3.090514
H          1.680740     0.622734    -2.201421
H          1.748017     1.689370    -3.324807
Gh(O)      0.724522    -0.831400     3.164447
Gh(H)      0.313632    -0.838633     2.273180
Gh(H)      1.443347    -0.198288     3.178378
Gh(O)     -0.538708    -3.161155    -1.222705
Gh(H)     -0.911093    -2.966491    -2.155417
Gh(H)     -0.428745    -2.313873    -0.869458
Gh(O)     -2.786344     0.234985    -1.999484
Gh(H)     -2.318369     0.483461    -1.218225
Gh(H)     -2.131614     0.066966    -2.657688

units ang
no_reorient
no_com
symmetry c1
}

set {
basis        aug-cc-pVTZ
scf_type     df
}

energy("mp2")
