MEMORY 60 GB

molecule dimer {
0 1
Gh(Br)     0.000000     0.000000     0.000000
O          0.779723     2.101047     2.199835
H          0.426021     1.474308     1.520328
H          0.408280     2.960514     1.936831
Gh(O)      1.680523    -2.227455     1.670762
Gh(H)      1.216158    -1.563865     1.147402
Gh(H)      2.593395    -1.916082     1.738707
Gh(O)     -2.177205    -0.865000     2.509215
Gh(H)     -2.496326     0.047270     2.768170
Gh(H)     -1.471994    -0.874637     1.842706
Gh(O)      3.480100    -0.005299    -0.932052
Gh(H)      2.930060    -0.789766    -1.221807
Gh(H)      3.669445     0.562215    -1.658308

units ang
no_reorient
no_com
symmetry c1
}

set {
basis        aug-cc-pVTZ
scf_type     df
}

energy("mp2")
