MEMORY 60 GB

molecule dimer {
-1 1
Br         0.000000     0.000000     0.000000
O         -1.772441    -1.013978     2.474033
H         -1.574978    -0.449582     3.217609
H         -1.403679    -0.590186     1.642038
O          0.153443     3.026345    -1.370826
H         -0.355384     2.308360    -1.026650
H         -0.493762     3.710273    -1.432334
O         -2.091719     2.479956     1.054046
H         -1.732622     2.926053     1.826747
H         -1.314715     1.926701     0.771278
O         -2.844312    -0.096528    -2.039101
H         -2.475962     0.417129    -2.754453
H         -2.104157    -0.194575    -1.466153
O          0.017861    -2.734789    -2.364762
H          0.784096    -3.289794    -2.529533
H          0.337217    -2.049244    -1.765328
O          2.661036     0.539110    -2.156861
H          2.239767     1.400442    -1.867415
H          2.677201    -0.043631    -1.356634

units ang
no_reorient
no_com
symmetry c1
}

set {
basis        aug-cc-pVTZ
scf_type     df
}

energy("mp2")
