MEMORY 60 GB

molecule dimer {
-1 1
Br     0.000000     0.000000     0.000000
--
0 1
O      2.939852    -1.915562    -0.533554
H      2.801389    -2.458442     0.258757
H      2.150074    -1.360069    -0.546123
O     -0.164365    -1.885111     2.805646
H     -1.005559    -2.298100     3.035198
H     -0.322087    -1.441707     1.915505
O     -2.601132    -1.503362     0.550397
H     -2.065997    -0.913649     0.005071
H     -2.354269    -2.450518     0.300106
O     -0.284074    -1.956940    -2.736350
H     -0.384603    -1.150899    -3.277467
H     -0.378144    -1.636309    -1.835516
O      2.821932     0.987818     1.931994
H      2.380055     0.594532     2.724836
H      2.119721     1.303065     1.324861
O     -1.781380     1.694666    -2.572642
H     -1.551471     1.421173    -1.702222
H     -1.550553     2.618521    -2.578283

units ang
no_reorient
no_com
symmetry c1
}

set {
basis        aug-cc-pVTZ
scf_type     df
}

energy("mp2", bsse_type="cp")
