MEMORY 60 GB

molecule dimer {
-1 1
Br         0.000000     0.000000     0.000000
Gh(O)      0.475829    -3.025000    -1.272041
Gh(H)      0.055212    -3.372620    -0.471336
Gh(H)      0.533315    -2.072946    -1.193364
Gh(O)      1.556372    -1.998430     2.295902
Gh(H)      1.091818    -1.647091     1.556228
Gh(H)      1.428739    -1.429902     3.042221
Gh(O)     -1.645126    -1.882973     1.903576
Gh(H)     -1.530895    -2.707178     1.398897
Gh(H)     -1.093437    -1.199086     1.499601
Gh(O)      1.518153     2.079534     2.428210
Gh(H)      1.233613     2.008716     3.366920
Gh(H)      1.307645     1.205860     1.999083

units ang
no_reorient
no_com
symmetry c1
}

set {
basis        aug-cc-pVTZ
scf_type     df
}

energy("mp2")
