MEMORY 60 GB

molecule dimer {
0 1
Gh(Br)     0.000000     0.000000     0.000000
Gh(O)      0.782416    -0.121722     3.451600
Gh(H)      0.936067    -0.092172     2.515779
Gh(H)      1.418512     0.518629     3.809706
O          1.279830    -3.033150    -0.407853
H          0.932121    -2.105125    -0.536490
H          0.609558    -3.519657    -0.884449
Gh(O)      1.071152     0.493703    -3.362487
Gh(H)      0.775103     0.547864    -2.430413
Gh(H)      1.344659     1.412062    -3.545358
Gh(O)      3.119203     1.381929    -0.509772
Gh(H)      2.304215     1.804893    -0.549245
Gh(H)      2.978825     0.669854     0.131836
Gh(O)     -2.613665     2.025634    -0.945890
Gh(H)     -1.791721     1.633691    -0.632163
Gh(H)     -3.281718     1.715110    -0.285048
Gh(O)      1.070902     3.348536    -0.645640
Gh(H)      1.491858     4.117923    -0.937238
Gh(H)      0.258142     3.643921    -0.280463

units ang
no_reorient
no_com
symmetry c1
}

set {
basis        aug-cc-pVTZ
scf_type     df
}

energy("mp2")
