MEMORY 60 GB

molecule dimer {
-1 1
Br         0.000000     0.000000     0.000000
O         -2.276881    -1.899460     1.400580
H         -2.198589    -1.582245     2.312148
H         -1.483800    -1.556681     0.911434
O          0.558217    -1.514625     3.077996
H          0.481697    -2.382991     2.719831
H          0.514443    -0.980773     2.257969
O         -3.207653     0.544694    -0.640069
H         -2.307200     0.537132    -0.484230
H         -3.309605     1.334027    -1.206248
O         -1.719668     1.404403     2.550898
H         -0.978194     1.949422     2.833464
H         -1.447545     0.991534     1.688828

units ang
no_reorient
no_com
symmetry c1
}

set {
basis        aug-cc-pVTZ
scf_type     df
}

energy("mp2")
