MEMORY 60 GB

molecule dimer {
0 1
Gh(Br)     0.000000     0.000000     0.000000
O         -2.114396    -0.823968    -2.451740
H         -1.344934    -0.815549    -1.892709
H         -2.578301    -1.686826    -2.349784
Gh(O)     -2.840106    -0.818403     1.694288
Gh(H)     -2.923211    -1.709126     1.352216
Gh(H)     -1.976154    -0.530056     1.405183
Gh(O)      0.359761    -1.678973     2.757291
Gh(H)      0.155656    -1.071042     3.436648
Gh(H)      0.309349    -1.206416     1.893897
Gh(O)     -0.002582    -3.436636     0.122679
Gh(H)     -0.128662    -2.474547     0.122748
Gh(H)      0.840782    -3.640659    -0.311875
Gh(O)      3.119434    -1.374833    -0.676470
Gh(H)      2.298457    -1.110581    -0.190519
Gh(H)      3.320939    -2.236567    -0.244513

units ang
no_reorient
no_com
symmetry c1
}

set {
basis        aug-cc-pVTZ
scf_type     df
}

energy("mp2")
