MEMORY 60 GB

molecule dimer {
-1 1
Br         0.000000     0.000000     0.000000
O          2.503250     1.309100    -1.941613
H          1.693555     1.376407    -1.484593
H          2.297101     0.825735    -2.742119
O         -3.001212     0.171636     1.161661
H         -2.095584     0.222145     0.811440
H         -3.311681     1.091997     1.388500
O          0.694505    -1.649884    -3.009010
H          1.348391    -1.016594    -3.241515
H          0.489087    -1.363055    -2.138119
O         -1.346088     2.952246    -0.232248
H         -0.998482     2.049470    -0.375845
H         -2.085144     2.836345     0.344825
O          1.132621     1.535541     2.844400
H          0.751306     1.043572     2.062688
H          1.972007     2.061134     2.749098

units ang
no_reorient
no_com
symmetry c1
}

set {
basis        aug-cc-pVTZ
scf_type     df
}

energy("mp2")
