MEMORY 60 GB

molecule dimer {
-1 1
Br         0.000000     0.000000     0.000000
O          0.907598    -3.034016    -0.451314
H          0.892890    -2.061947    -0.424380
H          1.171918    -3.349880     0.408425
O          2.003620    -0.060569     2.713891
H          1.339719     0.557371     2.425223
H          2.579032     0.542567     3.258704
O          1.853817     0.385000    -2.659522
H          2.431046    -0.410080    -2.411062
H          1.417523     0.543139    -1.862559
O          0.164337     3.154937    -0.854991
H          0.250547     2.315141    -0.320131
H          1.066341     3.225957    -1.078370

units ang
no_reorient
no_com
symmetry c1
}

set {
basis        aug-cc-pVTZ
scf_type     df
}

energy("mp2")
