MEMORY 60 GB

molecule dimer {
-1 1
Br         0.000000     0.000000     0.000000
O          2.118565     1.377600    -2.222428
H          1.524510     1.021254    -1.485349
H          2.481666     0.625784    -2.731423
O          1.458491    -2.150671    -1.922163
H          0.842838    -1.646061    -1.317309
H          2.186106    -1.568774    -2.026988
O          1.457423     0.149191     3.119476
H          1.197132    -0.104181     2.235110
H          2.162739    -0.500210     3.388672
O         -0.225623    -2.782781     2.045966
H         -0.289413    -2.198172     2.800474
H         -0.483719    -2.262648     1.280829
O          3.373774    -0.713926     0.596505
H          3.202858    -1.598986     0.946685
H          2.570736    -0.305260     0.273215

units ang
no_reorient
no_com
symmetry c1
}

set {
basis        aug-cc-pVTZ
scf_type     df
}

energy("mp2")
