MEMORY 60 GB

molecule dimer {
-1 1
Br         0.000000     0.000000     0.000000
O          0.621247    -0.253886     3.242490
H          0.234566     0.055975     2.396675
H          0.415263     0.421387     3.885040
O         -0.516566     3.494598     0.217594
H         -0.532078     2.526620     0.174775
H         -1.057899     3.829521    -0.470581
O         -2.996306     0.834889     0.610223
H         -2.026873     0.813467     0.442268
H         -3.320349    -0.026119     0.263152
O          2.165559     2.220841    -1.401461
H          1.379243     2.086322    -1.915582
H          1.950098     2.837132    -0.711281
O         -0.802070     1.843563    -2.594464
H         -1.311892     2.734430    -2.481891
H         -0.751670     1.215067    -1.902978

units ang
no_reorient
no_com
symmetry c1
}

set {
basis        aug-cc-pVTZ
scf_type     df
}

energy("mp2")
