MEMORY 60 GB

molecule dimer {
-1 1
Br         0.000000     0.000000     0.000000
O         -1.837505     2.686087     1.441240
H         -1.395781     2.850014     0.561055
H         -1.247273     2.007246     1.809128
O          2.018282     0.967796     2.748598
H          1.377311     1.015065     1.933015
H          2.889078     0.608425     2.456849
O         -0.998379     0.096685     3.070896
H         -0.488891     0.217516     2.223392
H         -1.866484     0.371090     2.902094
O         -3.343571     0.637488    -0.842857
H         -3.282439     0.319505    -1.793616
H         -2.688556     0.274884    -0.310570
O          1.336103    -3.264628    -0.543756
H          0.839531    -2.590942    -1.024661
H          1.966802    -2.869397     0.087043
O         -0.753078    -3.228067     1.448531
H          0.057408    -3.187980     0.982465
H         -1.283212    -2.484986     1.163089
O          3.039103     0.547804    -1.228230
H          3.591640    -0.311332    -1.209765
H          2.221180     0.248292    -0.808211

units ang
no_reorient
no_com
symmetry c1
}

set {
basis        aug-cc-pVTZ
scf_type     df
}

energy("mp2")
