MEMORY 60 GB

molecule dimer {
0 1
Gh(Br)     0.000000     0.000000     0.000000
Gh(O)     -2.113858    -2.512859    -1.150525
Gh(H)     -1.719212    -1.655030    -0.988060
Gh(H)     -3.081330    -2.317677    -0.996356
Gh(O)      2.801363    -0.362759    -2.114060
Gh(H)      2.269415    -0.106052    -1.334895
Gh(H)      2.149716    -0.381102    -2.814470
Gh(O)      1.551532     1.868500     2.398071
Gh(H)      0.950373     1.393075     1.807719
Gh(H)      1.026933     2.134675     3.208996
Gh(O)     -2.493947     2.161427     0.432978
Gh(H)     -1.694356     1.623968     0.386821
Gh(H)     -3.103791     1.928874    -0.305995
Gh(O)     -1.293434    -0.333436     3.221317
Gh(H)     -0.726989    -0.492791     2.454595
Gh(H)     -1.835080     0.452199     3.109521
O          0.747393     3.065685    -1.348131
H          0.606392     2.246399    -0.896833
H          0.782266     3.812533    -0.695899

units ang
no_reorient
no_com
symmetry c1
}

set {
basis        aug-cc-pVTZ
scf_type     df
}

energy("mp2")
