MEMORY 60 GB

molecule dimer {
0 1
Gh(Br)     0.000000     0.000000     0.000000
Gh(O)     -0.871621     3.438375     0.383857
Gh(H)     -0.516984     2.572586     0.549013
Gh(H)     -0.363617     4.028043     0.929764
O          1.138510     0.841363    -2.887618
H          0.694724     0.580199    -2.053917
H          2.017329     1.105167    -2.581160
Gh(O)     -3.253094     1.026650    -0.425546
Gh(H)     -3.390640     1.760968    -1.019761
Gh(H)     -2.319946     0.849586    -0.372891
Gh(O)     -0.964777    -1.798146    -2.591474
Gh(H)     -0.682415    -1.413219    -1.710488
Gh(H)     -1.809853    -2.198752    -2.407912
Gh(O)      0.991667     1.473530     2.961882
Gh(H)      1.085614     0.936924     2.131226
Gh(H)      0.113098     1.201158     3.227799

units ang
no_reorient
no_com
symmetry c1
}

set {
basis        aug-cc-pVTZ
scf_type     df
}

energy("mp2")
