MEMORY 60 GB

molecule dimer {
-1 1
Br         0.000000     0.000000     0.000000
O          0.827585    -0.673228     3.345565
H          1.608849    -1.256143     3.487856
H          0.809009    -0.281301     2.433452
O         -0.064610     2.592766     1.902330
H         -0.769192     3.247236     1.817366
H         -0.304759     1.892666     1.320770
O          2.158632    -2.165332    -1.610499
H          1.952538    -1.333555    -1.224842
H          3.138913    -2.262052    -1.619831
O          3.156044     1.337992    -0.732851
H          3.306466     0.506097    -0.217667
H          2.230436     1.255178    -0.739111

units ang
no_reorient
no_com
symmetry c1
}

set {
basis        aug-cc-pVTZ
scf_type     df
}

energy("mp2")
