MEMORY 60 GB

molecule dimer {
-1 1
Br     0.000000     0.000000     0.000000
--
0 1
O     -1.696690     2.934160     0.134506
H     -1.321713     2.170825    -0.262468
H     -2.582990     2.990468    -0.140736
O      2.205792     1.542061    -1.989152
H      1.378254     1.355469    -1.592385
H      1.896691     1.977670    -2.832326
O      2.682266     1.638353     1.709860
H      1.939337     1.329311     1.132545
H      2.900490     2.498860     1.415817

units ang
no_reorient
no_com
symmetry c1
}

set {
basis        aug-cc-pVTZ
scf_type     df
}

energy("mp2", bsse_type="cp")
