MEMORY 60 GB

molecule dimer {
-1 1
Br     0.000000     0.000000     0.000000
--
0 1
O     -2.114396    -0.823968    -2.451740
H     -1.344934    -0.815549    -1.892709
H     -2.578301    -1.686826    -2.349784
O     -2.840106    -0.818403     1.694288
H     -2.923211    -1.709126     1.352216
H     -1.976154    -0.530056     1.405183
O      0.359761    -1.678973     2.757291
H      0.155656    -1.071042     3.436648
H      0.309349    -1.206416     1.893897
O     -0.002582    -3.436636     0.122679
H     -0.128662    -2.474547     0.122748
H      0.840782    -3.640659    -0.311875
O      3.119434    -1.374833    -0.676470
H      2.298457    -1.110581    -0.190519
H      3.320939    -2.236567    -0.244513

units ang
no_reorient
no_com
symmetry c1
}

set {
basis        aug-cc-pVTZ
scf_type     df
}

energy("mp2", bsse_type="cp")
