MEMORY 60 GB

molecule dimer {
-1 1
Br     0.000000     0.000000     0.000000
--
0 1
O     -2.781246     1.510084     1.569551
H     -2.072540     1.009944     1.041255
H     -3.635131     1.011783     1.573126
O     -1.440121    -2.331353    -1.915099
H     -1.006754    -1.730021    -1.255599
H     -1.064572    -3.197794    -1.969547
O     -3.247932     0.467714    -1.516885
H     -2.362877     0.540347    -1.151819
H     -3.475365    -0.447640    -1.620254
O      0.031526     3.421465    -0.300243
H     -0.878325     3.780621    -0.011616
H      0.054833     2.497967    -0.083518
O      0.960104     0.920447    -2.955719
H      0.402808     0.917896    -2.160409
H      0.692381     1.632242    -3.631367

units ang
no_reorient
no_com
symmetry c1
}

set {
basis        aug-cc-pVTZ
scf_type     df
}

energy("mp2", bsse_type="cp")
