MEMORY 60 GB

molecule dimer {
-1 1
Br         0.000000     0.000000     0.000000
O         -1.556110    -2.946603    -0.307399
H         -1.448311    -3.834352    -0.530023
H         -0.696136    -2.475940    -0.482361
O         -0.086996     0.125946     3.353392
H         -0.789442     0.773124     3.412034
H          0.173565     0.233040     2.501182
O          1.506198     2.404300     1.895924
H          1.138172     1.617521     1.469830
H          2.068506     2.028144     2.516707
O          3.466933     0.167256    -0.603178
H          2.462198     0.362718    -0.327444
H          3.349089    -0.691950    -1.088854
O          1.507524     0.971719    -2.962000
H          1.482423     1.837733    -3.370919
H          1.113174     1.149479    -2.095101
O         -3.321768     0.154397     0.868399
H         -2.339922     0.333567     0.860598
H         -3.394288    -0.551032     0.257363

units ang
no_reorient
no_com
symmetry c1
}

set {
basis        aug-cc-pVTZ
scf_type     df
}

energy("mp2")
