MEMORY 60 GB

molecule dimer {
-1 1
Br     0.000000     0.000000     0.000000
--
0 1
O     -0.999022    -2.679634    -1.724013
H     -0.678718    -2.037465    -1.171070
H     -1.864558    -2.807700    -1.354503
O      2.580843    -1.796834    -1.300260
H      2.444330    -2.737774    -1.082597
H      1.984606    -1.292710    -0.800320
O      0.716653    -2.040909     2.401316
H      0.606530    -1.564525     1.571865
H      0.320539    -1.488156     3.042768

units ang
no_reorient
no_com
symmetry c1
}

set {
basis        aug-cc-pVTZ
scf_type     df
}

energy("mp2", bsse_type="cp")
