MEMORY 60 GB

molecule dimer {
-1 1
Br         0.000000     0.000000     0.000000
O          1.877253    -0.925629    -2.503878
H          1.568959    -0.369866    -1.756608
H          1.769866    -1.829815    -2.152507
O          0.170065     2.901916    -1.500734
H         -0.216467     2.541833    -2.272789
H          0.178509     2.130837    -0.924963
O          0.283163    -1.282719     3.211734
H          0.144151    -0.907789     2.345728
H         -0.490220    -1.053040     3.745017
O          3.272579    -0.761567     0.566827
H          2.477722    -0.224904     0.466952
H          2.968580    -1.638178     0.298848
O          0.955461     2.446042     2.162195
H          0.814632     1.637742     1.624264
H          0.875880     2.278959     3.123204
O         -1.258581    -1.316716    -3.035756
H         -2.002288    -0.752139    -3.089390
H         -0.819194    -1.250416    -2.138434

units ang
no_reorient
no_com
symmetry c1
}

set {
basis        aug-cc-pVTZ
scf_type     df
}

energy("mp2")
