MEMORY 60 GB

molecule dimer {
-1 1
Br         0.000000     0.000000     0.000000
O          0.691227    -2.051459    -2.490181
H          1.361630    -1.712435    -3.078251
H          0.625590    -1.299494    -1.855394
O         -2.617496     0.305919     2.221716
H         -1.890149     0.159326     1.576929
H         -3.420818     0.158676     1.729850
O          2.189098    -1.640069     1.867177
H          1.995566    -1.634790     2.835847
H          1.377796    -1.359444     1.357208
O         -0.250879     1.231325    -3.139368
H         -0.559172     0.860686    -2.271953
H         -0.247851     2.149150    -2.941606
O          2.739667     2.233295    -0.788962
H          2.626840     1.471708    -0.259006
H          3.398173     1.947219    -1.438041

units ang
no_reorient
no_com
symmetry c1
}

set {
basis        aug-cc-pVTZ
scf_type     df
}

energy("mp2")
