MEMORY 60 GB

molecule dimer {
-1 1
Br         0.000000     0.000000     0.000000
O          2.943776    -1.291586    -0.717929
H          3.240026    -1.464467     0.202400
H          1.978967    -1.068027    -0.600416
O         -0.095928    -0.517762     3.548290
H         -0.814866    -1.197163     3.491646
H         -0.072377    -0.113912     2.693842
O          0.527750    -0.312189    -3.389362
H          0.441500     0.034753    -2.536104
H          1.092442     0.303107    -3.915709
O         -1.833587     2.369462     2.018259
H         -2.428429     3.194020     1.901604
H         -1.874762     2.017001     1.165854
O         -0.596122    -3.194149    -0.160636
H         -1.524899    -3.188801     0.101012
H         -0.342956    -2.240154    -0.160816
O          2.451296     2.621292    -0.011617
H          1.651985     2.047015    -0.019684
H          3.130850     2.123247    -0.509532

units ang
no_reorient
no_com
symmetry c1
}

set {
basis        aug-cc-pVTZ
scf_type     df
}

energy("mp2")
