MEMORY 60 GB

molecule dimer {
0 1
Gh(Br)     0.000000     0.000000     0.000000
Gh(O)     -2.693192    -1.679912     0.355723
Gh(H)     -1.875366    -1.176432     0.015423
Gh(H)     -3.226162    -1.909403    -0.424515
Gh(O)     -1.448803     2.589056    -1.473057
Gh(H)     -1.905026     2.601791    -0.617480
Gh(H)     -1.862488     3.210439    -2.073139
Gh(O)     -2.142334     0.188851    -2.736695
Gh(H)     -1.900358     0.972141    -2.236676
Gh(H)     -2.330046     0.458810    -3.593644
Gh(O)      0.593152     0.691607    -3.130397
Gh(H)      0.790973     0.153655    -3.929734
Gh(H)      0.103934     0.137581    -2.474532
Gh(O)      1.279965    -2.599480    -1.667778
Gh(H)      0.899924    -2.394763    -2.551512
Gh(H)      1.123623    -1.790753    -1.235832
Gh(O)      0.507220    -0.594639     3.390560
Gh(H)      1.000701     0.236302     3.548363
Gh(H)      0.075494    -0.431779     2.468449
O         -2.141177     1.800887     1.874188
H         -1.623828     1.273723     1.198477
H         -1.535113     2.232496     2.500517

units ang
no_reorient
no_com
symmetry c1
}

set {
basis        aug-cc-pVTZ
scf_type     df
}

energy("mp2")
