MEMORY 60 GB

molecule dimer {
0 1
Gh(Br)     0.000000     0.000000     0.000000
Gh(O)      2.452911    -0.995525     2.199232
Gh(H)      3.132083    -1.275402     2.790759
Gh(H)      2.338359    -1.739127     1.526334
Gh(O)     -3.040005     0.614667    -1.483514
Gh(H)     -2.166655     0.355003    -1.129877
Gh(H)     -2.955149     0.617711    -2.466047
Gh(O)     -0.201879    -0.214965    -3.389215
Gh(H)     -0.892087    -0.868485    -3.563227
Gh(H)     -0.029122    -0.354479    -2.467663
O          2.167253     1.963529    -1.986450
H          1.432173     1.531595    -1.573186
H          1.877952     2.248149    -2.830986
Gh(O)      1.737886     2.376316     1.902304
Gh(H)      1.869496     2.030453     2.758105
Gh(H)      1.995270     1.750043     1.235313
Gh(O)      1.036004    -2.754093    -1.296498
Gh(H)      1.857363    -2.562526    -1.734994
Gh(H)      0.655300    -2.037283    -0.779103

units ang
no_reorient
no_com
symmetry c1
}

set {
basis        aug-cc-pVTZ
scf_type     df
}

energy("mp2")
