MEMORY 60 GB

molecule dimer {
-1 1
Br     0.000000     0.000000     0.000000
--
0 1
O     -0.871621     3.438375     0.383857
H     -0.516984     2.572586     0.549013
H     -0.363617     4.028043     0.929764
O      1.138510     0.841363    -2.887618
H      0.694724     0.580199    -2.053917
H      2.017329     1.105167    -2.581160
O     -3.253094     1.026650    -0.425546
H     -3.390640     1.760968    -1.019761
H     -2.319946     0.849586    -0.372891
O     -0.964777    -1.798146    -2.591474
H     -0.682415    -1.413219    -1.710488
H     -1.809853    -2.198752    -2.407912
O      0.991667     1.473530     2.961882
H      1.085614     0.936924     2.131226
H      0.113098     1.201158     3.227799

units ang
no_reorient
no_com
symmetry c1
}

set {
basis        aug-cc-pVTZ
scf_type     df
}

energy("mp2", bsse_type="cp")
