MEMORY 60 GB

molecule dimer {
0 1
Gh(Br)     0.000000     0.000000     0.000000
Gh(O)     -1.555931    -2.410735     1.903242
Gh(H)     -1.336158    -1.685951     1.329705
Gh(H)     -1.202065    -2.143102     2.753233
Gh(O)      1.417048     1.968120    -2.039520
Gh(H)      1.167136     1.401234    -1.339808
Gh(H)      2.306972     2.196646    -1.827799
Gh(O)     -2.508795     2.074873    -1.101146
Gh(H)     -3.092353     1.814461    -0.316996
Gh(H)     -1.909740     1.348917    -1.007525
Gh(O)      2.328483    -2.470186    -0.546566
Gh(H)      1.861807    -3.293107    -0.316598
Gh(H)      1.615156    -1.824846    -0.512308
O         -1.332291    -0.652158    -3.288020
H         -0.891184    -0.465234    -2.411088
H         -0.886797    -0.114013    -3.927637

units ang
no_reorient
no_com
symmetry c1
}

set {
basis        aug-cc-pVTZ
scf_type     df
}

energy("mp2")
