MEMORY 60 GB

molecule dimer {
-1 1
Br     0.000000     0.000000     0.000000
--
0 1
O      1.578311    -2.750057     1.129134
H      2.275052    -2.856220     0.456785
H      1.365926    -1.831382     1.132918
O      1.294967     2.190981     1.966174
H      0.633025     2.183210     2.649956
H      0.974462     1.512747     1.303727
O     -0.142327     0.019548     3.444487
H      0.556138    -0.565782     3.737245
H     -0.248290     0.125821     2.436320
O     -1.175057    -3.092866     0.072592
H     -1.948415    -2.982136    -0.544682
H     -0.845584    -2.244508     0.354573
O     -2.669208    -0.113958     2.008018
H     -3.296598     0.445070     1.489547
H     -1.952017    -0.165603     1.402326
O      3.253588     1.021586    -0.786884
H      2.951647     1.725248    -1.377890
H      2.551185     0.537784    -0.424420

units ang
no_reorient
no_com
symmetry c1
}

set {
basis        aug-cc-pVTZ
scf_type     df
}

energy("mp2", bsse_type="cp")
