MEMORY 60 GB

molecule dimer {
0 1
Gh(Br)     0.000000     0.000000     0.000000
Gh(O)     -0.630320    -1.812852    -2.835716
Gh(H)      0.099872    -1.746765    -3.480055
Gh(H)     -0.261433    -1.797117    -1.930378
O          2.945936    -0.416442    -1.486677
H          3.091641     0.065515    -2.290126
H          2.192306    -0.076273    -1.026734
Gh(O)      1.081383     0.129347     3.221554
Gh(H)      0.797023     0.138574     2.329944
Gh(H)      1.856045    -0.415427     3.230156
Gh(O)      0.682430    -2.991189     1.039180
Gh(H)      0.558201    -2.053686     0.678418
Gh(H)      1.365896    -3.343831     0.489197
Gh(O)     -2.520613    -2.137780     0.741783
Gh(H)     -2.608792    -1.437443     1.439520
Gh(H)     -1.795357    -1.828209     0.187538

units ang
no_reorient
no_com
symmetry c1
}

set {
basis        aug-cc-pVTZ
scf_type     df
}

energy("mp2")
