MEMORY 60 GB

molecule dimer {
-1 1
Br         0.000000     0.000000     0.000000
O          1.048984    -1.751826     2.468714
H          0.346226    -1.574453     3.123380
H          0.851106    -1.311539     1.644549
O         -2.820287    -2.108900     0.576548
H         -2.511233    -1.229356     0.357885
H         -2.113463    -2.779649     0.548949
O          3.567175    -0.231884     0.328854
H          2.744073    -0.227220     0.878728
H          4.212940     0.263403     0.897667
O         -3.465849     0.836464    -0.133478
H         -3.736443     0.132471    -0.710973
H         -3.073107     1.425776    -0.768412
O         -0.059575     2.949979    -1.773779
H          0.033635     2.297669    -1.066174
H         -0.868960     2.765295    -2.220305

units ang
no_reorient
no_com
symmetry c1
}

set {
basis        aug-cc-pVTZ
scf_type     df
}

energy("mp2")
