MEMORY 60 GB

molecule dimer {
-1 1
Br         0.000000     0.000000     0.000000
O          1.901186     1.766278     1.976425
H          2.014537     1.299148     2.815032
H          1.226952     1.162183     1.576218
O          1.090075     3.227324    -1.160627
H          2.009569     3.131599    -1.409539
H          0.759246     2.452516    -0.697298
O          1.036749    -1.103900     3.095540
H          0.435450    -1.042285     2.289662
H          1.911055    -1.239199     2.756827
O         -2.629643     2.018819     0.922667
H         -1.841866     1.463958     1.121590
H         -2.314172     2.927331     0.932451
O         -2.583292    -1.610021    -1.363785
H         -2.276380    -1.035941    -0.678244
H         -1.849291    -1.880891    -1.897783

units ang
no_reorient
no_com
symmetry c1
}

set {
basis        aug-cc-pVTZ
scf_type     df
}

energy("mp2")
