MEMORY 60 GB

molecule dimer {
0 1
Gh(Br)     0.000000     0.000000     0.000000
Gh(O)      1.548803    -0.710591     3.040000
Gh(H)      0.898652    -0.539982     2.353961
Gh(H)      1.060812    -1.118901     3.781649
Gh(O)      0.137519    -0.423573    -3.463886
Gh(H)     -0.133520    -0.725311    -2.600673
Gh(H)     -0.032708    -1.196669    -3.995500
O         -2.010270    -2.265977     1.576016
H         -1.353894    -1.831518     1.044048
H         -2.834302    -1.936376     1.192922
Gh(O)     -0.016933    -2.910328    -1.674653
Gh(H)     -0.135970    -2.167692    -1.070498
Gh(H)      0.453271    -3.621303    -1.199784
Gh(O)      3.384032    -0.837063    -0.115591
Gh(H)      3.644167    -1.658433    -0.579572
Gh(H)      2.425456    -0.765354    -0.030565

units ang
no_reorient
no_com
symmetry c1
}

set {
basis        aug-cc-pVTZ
scf_type     df
}

energy("mp2")
