MEMORY 60 GB

molecule dimer {
0 1
Gh(Br)     0.000000     0.000000     0.000000
O          2.468166    -1.725257    -1.468911
H          2.008711    -1.796399    -2.336402
H          1.933235    -1.232159    -0.838800
Gh(O)     -1.184606    -3.402731     0.278725
Gh(H)     -0.353106    -3.499588     0.783401
Gh(H)     -1.108456    -2.501841    -0.036643
Gh(O)     -1.124259    -1.651488    -2.915811
Gh(H)     -0.354710    -2.056374    -3.284914
Gh(H)     -0.779463    -1.098095    -2.188563
Gh(O)     -2.680953     1.703746    -1.441367
Gh(H)     -2.245764     1.022923    -0.880588
Gh(H)     -2.101163     1.772878    -2.243374

units ang
no_reorient
no_com
symmetry c1
}

set {
basis        aug-cc-pVTZ
scf_type     df
}

energy("mp2")
