MEMORY 60 GB

molecule dimer {
-1 1
Br         0.000000     0.000000     0.000000
Gh(O)      0.341150     0.776241    -3.513535
Gh(H)      0.559687     1.745389    -3.643795
Gh(H)      0.259971     0.595020    -2.572308
Gh(O)     -3.228866     0.199860     1.064817
Gh(H)     -2.554272    -0.465074     0.898206
Gh(H)     -4.003385    -0.263674     1.419464
Gh(O)     -1.501421     2.694653    -1.037470
Gh(H)     -1.857259     2.772058    -1.919008
Gh(H)     -1.054329     1.848031    -0.932673
Gh(O)      2.688093     2.201399    -0.380651
Gh(H)      2.548789     3.054275    -0.789423
Gh(H)      1.816747     1.792628    -0.342110

units ang
no_reorient
no_com
symmetry c1
}

set {
basis        aug-cc-pVTZ
scf_type     df
}

energy("mp2")
