MEMORY 60 GB

molecule dimer {
-1 1
Br         0.000000     0.000000     0.000000
Gh(O)      0.827585    -0.673228     3.345565
Gh(H)      1.608849    -1.256143     3.487856
Gh(H)      0.809009    -0.281301     2.433452
Gh(O)     -0.064610     2.592766     1.902330
Gh(H)     -0.769192     3.247236     1.817366
Gh(H)     -0.304759     1.892666     1.320770
Gh(O)      2.158632    -2.165332    -1.610499
Gh(H)      1.952538    -1.333555    -1.224842
Gh(H)      3.138913    -2.262052    -1.619831
Gh(O)      3.156044     1.337992    -0.732851
Gh(H)      3.306466     0.506097    -0.217667
Gh(H)      2.230436     1.255178    -0.739111

units ang
no_reorient
no_com
symmetry c1
}

set {
basis        aug-cc-pVTZ
scf_type     df
}

energy("mp2")
