MEMORY 60 GB

molecule dimer {
0 1
Gh(Br)     0.000000     0.000000     0.000000
Gh(O)      0.621247    -0.253886     3.242490
Gh(H)      0.234566     0.055975     2.396675
Gh(H)      0.415263     0.421387     3.885040
Gh(O)     -0.516566     3.494598     0.217594
Gh(H)     -0.532078     2.526620     0.174775
Gh(H)     -1.057899     3.829521    -0.470581
Gh(O)     -2.996306     0.834889     0.610223
Gh(H)     -2.026873     0.813467     0.442268
Gh(H)     -3.320349    -0.026119     0.263152
Gh(O)      2.165559     2.220841    -1.401461
Gh(H)      1.379243     2.086322    -1.915582
Gh(H)      1.950098     2.837132    -0.711281
O         -0.802070     1.843563    -2.594464
H         -1.311892     2.734430    -2.481891
H         -0.751670     1.215067    -1.902978

units ang
no_reorient
no_com
symmetry c1
}

set {
basis        aug-cc-pVTZ
scf_type     df
}

energy("mp2")
