MEMORY 60 GB

molecule dimer {
-1 1
Br         0.000000     0.000000     0.000000
O          2.005998     2.469794    -1.548747
H          2.809869     2.228331    -1.965091
H          1.560168     1.628217    -1.200553
O          0.529123     3.007364     1.321262
H          1.470211     3.161375     1.107058
H          0.395327     2.119154     0.958626
O         -1.660321     0.052137    -3.166204
H         -2.229712     0.623741    -2.655572
H         -1.973837     0.013299    -4.074220
O          2.794752     0.356441     1.755247
H          3.260746    -0.479172     1.544679
H          1.859188     0.213200     1.467202

units ang
no_reorient
no_com
symmetry c1
}

set {
basis        aug-cc-pVTZ
scf_type     df
}

energy("mp2")
