MEMORY 60 GB

molecule dimer {
-1 1
Br         0.000000     0.000000     0.000000
O         -0.271207     3.467914     0.449623
H         -0.241023     2.515481     0.343126
H         -0.990742     3.791271    -0.071397
O          2.711279    -1.492542     1.388467
H          2.050502    -1.049548     0.918516
H          2.762383    -1.071533     2.245460
O         -3.165397     1.319402     1.105039
H         -2.402253     0.932596     1.588108
H         -3.585081     2.039385     1.609883
O          2.670633     1.932263     0.597242
H          2.022097     1.289442     0.376040
H          2.703031     1.805511     1.515012
O         -0.063975     0.793039     3.259158
H         -0.939639     0.583016     3.552775
H         -0.180918     0.683970     2.320537
O         -2.832498     0.803970    -1.649860
H         -2.012548     0.947282    -2.193061
H         -2.533765     0.983576    -0.688689

units ang
no_reorient
no_com
symmetry c1
}

set {
basis        aug-cc-pVTZ
scf_type     df
}

energy("mp2")
