MEMORY 60 GB

molecule dimer {
0 1
Gh(Br)     0.000000     0.000000     0.000000
Gh(O)     -1.375620     3.047926    -1.337998
Gh(H)     -0.877399     3.716957    -0.861773
Gh(H)     -0.951090     2.166142    -1.171486
Gh(O)      2.709632    -1.863457     0.517570
Gh(H)      2.540301    -2.686032     0.113931
Gh(H)      1.960279    -1.257251     0.338176
O         -1.907275    -2.478936    -1.045372
H         -1.364393    -1.760338    -0.788272
H         -2.530730    -2.108684    -1.652647

units ang
no_reorient
no_com
symmetry c1
}

set {
basis        aug-cc-pVTZ
scf_type     df
}

energy("mp2")
