MEMORY 60 GB

molecule dimer {
0 1
Gh(Br)     0.000000     0.000000     0.000000
Gh(O)      3.163199     0.646243     0.256837
Gh(H)      2.316875     1.030886     0.379756
Gh(H)      3.128898     0.185283    -0.623943
Gh(O)      2.053655     1.826621    -2.200546
Gh(H)      1.210211     1.608535    -1.815308
Gh(H)      2.452670     0.991479    -2.451912
Gh(O)     -1.135008     1.804837    -2.389665
Gh(H)     -0.790382     1.133645    -1.799786
Gh(H)     -1.433856     1.374123    -3.206087
O         -1.656461     2.271419     1.980330
H         -1.065867     1.529333     2.085922
H         -2.325769     2.490524     2.710885
Gh(O)     -2.736680    -2.086686     0.149282
Gh(H)     -2.946208    -1.915935     1.116394
Gh(H)     -1.926651    -1.544031    -0.020258

units ang
no_reorient
no_com
symmetry c1
}

set {
basis        aug-cc-pVTZ
scf_type     df
}

energy("mp2")
