MEMORY 60 GB

molecule dimer {
-1 1
Br     0.000000     0.000000     0.000000
--
0 1
O     -2.021869    -2.179823     1.217412
H     -2.921871    -1.867399     1.198558
H     -1.513540    -1.451927     0.815047
O     -2.961999     0.929139    -1.272353
H     -2.728774     1.887839    -1.108211
H     -2.207349     0.482925    -0.838278
O     -2.117015     1.588878     2.246208
H     -1.423790     1.453822     1.551659
H     -1.773078     0.949786     2.896329
O     -0.330378    -1.158355    -3.243256
H     -0.343064    -0.673188    -2.378621
H     -0.323750    -2.040751    -2.892653

units ang
no_reorient
no_com
symmetry c1
}

set {
basis        aug-cc-pVTZ
scf_type     df
}

energy("mp2", bsse_type="cp")
