MEMORY 60 GB

molecule dimer {
-1 1
Br         0.000000     0.000000     0.000000
Gh(O)      2.005998     2.469794    -1.548747
Gh(H)      2.809869     2.228331    -1.965091
Gh(H)      1.560168     1.628217    -1.200553
Gh(O)      0.529123     3.007364     1.321262
Gh(H)      1.470211     3.161375     1.107058
Gh(H)      0.395327     2.119154     0.958626
Gh(O)     -1.660321     0.052137    -3.166204
Gh(H)     -2.229712     0.623741    -2.655572
Gh(H)     -1.973837     0.013299    -4.074220
Gh(O)      2.794752     0.356441     1.755247
Gh(H)      3.260746    -0.479172     1.544679
Gh(H)      1.859188     0.213200     1.467202

units ang
no_reorient
no_com
symmetry c1
}

set {
basis        aug-cc-pVTZ
scf_type     df
}

energy("mp2")
