MEMORY 60 GB

molecule dimer {
0 1
Gh(Br)     0.000000     0.000000     0.000000
O          3.099023     0.340281     1.397133
H          2.306734     0.381405     0.878260
H          3.844115     0.047231     0.936605
Gh(O)      1.127680     3.159671     0.522464
Gh(H)      1.378824     3.076014     1.435986
Gh(H)      0.893393     2.283071     0.250242
Gh(O)      0.153067    -3.161383    -1.487612
Gh(H)      0.216689    -2.247035    -1.168259
Gh(H)      0.001661    -3.027025    -2.433230
Gh(O)     -2.154109     1.418877    -2.303659
Gh(H)     -2.330310     0.966645    -3.084746
Gh(H)     -1.379206     0.970868    -1.937812
Gh(O)     -0.699327     0.060744     3.039694
Gh(H)     -0.594770     0.380454     2.170591
Gh(H)      0.152358    -0.312270     3.329137
Gh(O)      0.885237     0.524743    -3.039093
Gh(H)      0.866842     0.462270    -2.115711
Gh(H)      0.908147     1.420376    -3.360499

units ang
no_reorient
no_com
symmetry c1
}

set {
basis        aug-cc-pVTZ
scf_type     df
}

energy("mp2")
