MEMORY 60 GB

molecule dimer {
0 1
Gh(Br)     0.000000     0.000000     0.000000
O         -2.849832     1.193942    -1.826212
H         -1.931928     1.207032    -1.575616
H         -2.940118     0.369058    -2.291841
Gh(O)      3.301686    -0.334450    -0.377123
Gh(H)      2.396533    -0.045027    -0.274515
Gh(H)      3.799968     0.084606     0.318721
Gh(O)     -0.087440     3.511872     0.501620
Gh(H)      0.781254     4.031099     0.240035
Gh(H)     -0.046340     2.573718     0.235001
Gh(O)      0.762499     2.499028    -2.179473
Gh(H)      0.529887     2.070563    -3.000811
Gh(H)      0.722495     1.889826    -1.445165
Gh(O)     -1.395787    -1.285353    -2.578759
Gh(H)     -0.708440    -1.470841    -3.234854
Gh(H)     -0.928793    -0.644101    -2.033967

units ang
no_reorient
no_com
symmetry c1
}

set {
basis        aug-cc-pVTZ
scf_type     df
}

energy("mp2")
