MEMORY 60 GB

molecule dimer {
-1 1
Br         0.000000     0.000000     0.000000
Gh(O)     -0.511209    -1.596324     2.879646
Gh(H)     -0.433710    -0.997467     2.138130
Gh(H)     -0.918528    -1.038916     3.548105
Gh(O)     -3.187448     0.590894    -0.105155
Gh(H)     -3.397130     0.517404     0.858241
Gh(H)     -3.018042     1.507967    -0.247243
Gh(O)      2.646787    -1.460966    -0.998380
Gh(H)      2.179136    -1.281805    -1.828390
Gh(H)      1.885375    -1.346297    -0.386432
Gh(O)      0.065671     2.343883     2.229430
Gh(H)     -0.131811     1.750637     1.521156
Gh(H)      1.015092     2.147601     2.388385
Gh(O)      2.637791     0.698439     2.316515
Gh(H)      3.403190     0.095791     2.263071
Gh(H)      2.040586     0.587135     1.585898

units ang
no_reorient
no_com
symmetry c1
}

set {
basis        aug-cc-pVTZ
scf_type     df
}

energy("mp2")
