MEMORY 60 GB

molecule dimer {
0 1
Gh(Br)     0.000000     0.000000     0.000000
Gh(O)     -2.305583    -2.407606     0.494450
Gh(H)     -1.867709    -1.598552     0.196248
Gh(H)     -2.635182    -2.303553     1.364687
Gh(O)     -2.542743     1.435325     1.136668
Gh(H)     -2.316989     2.197870     1.699100
Gh(H)     -1.797245     0.909355     0.922860
Gh(O)     -0.667402     0.006100     3.273615
Gh(H)     -1.303297     0.663052     3.442756
Gh(H)     -0.519269    -0.098645     2.327999
O          2.326692     2.113075     1.613902
H          1.497957     1.639342     1.313777
H          2.985432     1.613206     1.112036

units ang
no_reorient
no_com
symmetry c1
}

set {
basis        aug-cc-pVTZ
scf_type     df
}

energy("mp2")
