MEMORY 60 GB

molecule dimer {
0 1
Gh(Br)     0.000000     0.000000     0.000000
O         -2.443613    -2.360774    -0.255856
H         -1.986974    -1.574922    -0.584686
H         -3.201224    -2.434475    -0.842092
Gh(O)      3.066514    -0.605083     1.353026
Gh(H)      2.141438    -0.713791     1.099239
Gh(H)      3.086047    -0.698339     2.294813
Gh(O)      0.367047    -3.332711     0.754569
Gh(H)      1.227098    -3.062496     0.463316
Gh(H)     -0.190689    -2.686798     0.393415
Gh(O)      0.333694    -0.332488    -3.479360
Gh(H)      0.357208    -0.153407    -2.541475
Gh(H)     -0.280528    -1.086508    -3.536513
Gh(O)     -0.545829     2.707927     1.712656
Gh(H)     -1.489040     2.571515     1.590886
Gh(H)     -0.104623     1.938941     1.344831

units ang
no_reorient
no_com
symmetry c1
}

set {
basis        aug-cc-pVTZ
scf_type     df
}

energy("mp2")
