MEMORY 60 GB

molecule dimer {
0 1
Gh(Br)     0.000000     0.000000     0.000000
Gh(O)      2.375991     1.403050     1.759821
Gh(H)      1.608804     1.035722     1.188101
Gh(H)      3.062120     1.668836     1.129100
O          2.883715    -1.624042    -0.731104
H          3.463684    -1.974029    -0.037743
H          2.061357    -1.406903    -0.251967

units ang
no_reorient
no_com
symmetry c1
}

set {
basis        aug-cc-pVTZ
scf_type     df
}

energy("mp2")
