MEMORY 60 GB

molecule dimer {
-1 1
Br         0.000000     0.000000     0.000000
O         -2.781824     0.954914     1.546349
H         -2.079798     0.629798     0.983421
H         -2.569173     1.860935     1.801428
O          0.417110     1.164103     2.920605
H         -0.279275     0.933093     3.573898
H          0.289615     0.628287     2.138627
O         -1.161290     3.255151    -0.272712
H         -0.718022     2.402898    -0.139574
H         -0.489651     3.796101    -0.744628
O          3.058295     1.334047    -0.433045
H          2.146353     1.140968    -0.250352
H          3.046948     2.024410    -1.133360
O         -1.361860     1.474861    -2.856186
H         -1.202291     1.027410    -1.978617
H         -0.871594     2.343189    -2.876970

units ang
no_reorient
no_com
symmetry c1
}

set {
basis        aug-cc-pVTZ
scf_type     df
}

energy("mp2")
