MEMORY 60 GB

molecule dimer {
-1 1
Br     0.000000     0.000000     0.000000
--
0 1
O      1.383396     2.880375     1.689837
H      0.998655     2.001846     1.765023
H      1.625502     2.922174     0.742268
O     -2.899952    -1.542526     0.562001
H     -2.681656    -1.715339     1.490147
H     -2.036155    -1.221167     0.231828
O     -1.229115     0.720300     3.121857
H     -1.534913    -0.162096     3.356935
H     -0.998486     0.789810     2.220954
O     -2.495561     2.154699    -0.039728
H     -1.710013     1.651982    -0.136262
H     -3.067662     1.525619     0.422586
O      0.532476    -3.145512     0.853930
H      1.023018    -3.992223     0.651557
H      0.354709    -2.697916    -0.018524

units ang
no_reorient
no_com
symmetry c1
}

set {
basis        aug-cc-pVTZ
scf_type     df
}

energy("mp2", bsse_type="cp")
