MEMORY 60 GB

molecule dimer {
-1 1
Br         0.000000     0.000000     0.000000
O         -0.379237     2.882694    -2.014268
H          0.562370     3.245775    -1.893921
H         -0.429436     2.146345    -1.405238
O          0.265547    -2.152641    -2.556446
H          0.109230    -1.512354    -1.853273
H         -0.395724    -2.804868    -2.310221
O          2.476012     1.824756     1.189733
H          1.692344     1.651069     0.621015
H          2.748789     2.618981     0.811553
O          2.562109    -2.156767    -0.903197
H          2.064666    -2.905687    -1.220072
H          1.839878    -1.556832    -0.648916

units ang
no_reorient
no_com
symmetry c1
}

set {
basis        aug-cc-pVTZ
scf_type     df
}

energy("mp2")
