MEMORY 60 GB

molecule dimer {
-1 1
Br         0.000000     0.000000     0.000000
O         -1.259613    -1.972372    -2.351696
H         -0.860891    -1.435419    -1.661193
H         -2.112677    -2.309575    -2.092339
O         -2.845407     1.529579    -0.341206
H         -3.404442     0.725851    -0.231895
H         -1.918137     1.227655    -0.418924
O          1.203798     0.989340    -2.982723
H          1.383848     1.404532    -2.151666
H          0.917733     0.079877    -2.748949
O         -1.942333    -2.300435     1.090951
H         -1.277267    -1.678503     0.760063
H         -1.677310    -3.142909     0.788314
O          2.995159    -1.396829    -0.963849
H          2.160999    -1.154144    -0.534338
H          3.403321    -0.551585    -1.226511

units ang
no_reorient
no_com
symmetry c1
}

set {
basis        aug-cc-pVTZ
scf_type     df
}

energy("mp2")
