MEMORY 60 GB

molecule dimer {
0 1
Gh(Br)     0.000000     0.000000     0.000000
Gh(O)      1.933199     1.986490     1.808234
Gh(H)      1.215137     1.668912     1.233648
Gh(H)      2.279603     2.831188     1.447197
O         -2.110295     2.665636     0.091665
H         -1.505616     1.895002     0.152179
H         -1.513127     3.456853    -0.085606
Gh(O)      0.395690    -0.651139     3.487777
Gh(H)      0.093477    -0.316228     2.602410
Gh(H)      0.310350    -1.614550     3.373877

units ang
no_reorient
no_com
symmetry c1
}

set {
basis        aug-cc-pVTZ
scf_type     df
}

energy("mp2")
