MEMORY 60 GB

molecule dimer {
0 1
Gh(Br)     0.000000     0.000000     0.000000
Gh(O)     -3.203691    -0.706166     0.782016
Gh(H)     -2.295960    -0.464817     0.667408
Gh(H)     -3.558639    -0.246998     1.530606
O         -1.688294    -2.239204    -1.689504
H         -1.640223    -2.974459    -1.039912
H         -1.367206    -1.475108    -1.153456
Gh(O)      1.718343    -2.981602     0.227705
Gh(H)      1.215621    -3.617408     0.840091
Gh(H)      1.172353    -2.184568     0.147489
Gh(O)     -1.023386     2.101542     2.512944
Gh(H)     -0.754621     1.462034     1.797374
Gh(H)     -0.259077     2.082588     3.154971

units ang
no_reorient
no_com
symmetry c1
}

set {
basis        aug-cc-pVTZ
scf_type     df
}

energy("mp2")
