MEMORY 60 GB

molecule dimer {
0 1
Gh(Br)     0.000000     0.000000     0.000000
O         -2.482245     0.431698    -2.183327
H         -1.655939     0.265964    -1.667076
H         -3.230451     0.292324    -1.603838
Gh(O)      0.162468     2.602185    -2.062760
Gh(H)      0.057853     1.916729    -1.447029
Gh(H)      0.378926     2.126170    -2.867373
Gh(O)      2.925195     1.607543     0.753982
Gh(H)      3.427561     1.760867    -0.069839
Gh(H)      2.058998     1.436778     0.427908
Gh(O)      2.391839    -0.819196    -2.219117
Gh(H)      1.654438    -0.575889    -1.629627
Gh(H)      1.934968    -1.167604    -3.010764

units ang
no_reorient
no_com
symmetry c1
}

set {
basis        aug-cc-pVTZ
scf_type     df
}

energy("mp2")
