MEMORY 60 GB

molecule dimer {
0 1
Gh(Br)     0.000000     0.000000     0.000000
Gh(O)      2.465274    -2.082896    -1.151644
Gh(H)      2.088415    -1.327484    -0.739582
Gh(H)      3.392014    -2.150807    -0.795133
O         -2.741984    -0.795186    -1.139633
H         -3.050808    -1.748838    -1.012684
H         -1.833173    -0.702090    -0.816427
Gh(O)     -1.323507     2.305848    -2.078266
Gh(H)     -1.377126     1.531047    -1.554944
Gh(H)     -2.005493     2.942304    -1.677368
Gh(O)     -1.653707     2.630529     1.100887
Gh(H)     -0.964169     2.021284     0.768719
Gh(H)     -1.213494     3.129397     1.794661

units ang
no_reorient
no_com
symmetry c1
}

set {
basis        aug-cc-pVTZ
scf_type     df
}

energy("mp2")
