MEMORY 60 GB

molecule dimer {
0 1
Gh(Br)     0.000000     0.000000     0.000000
Gh(O)     -2.938072     0.464389    -1.439165
Gh(H)     -3.102087    -0.253086    -2.073190
Gh(H)     -2.195405     0.228367    -0.888619
Gh(O)      0.951332    -1.540440     3.027413
Gh(H)      0.711603    -1.098178     2.200969
Gh(H)      1.717176    -1.031261     3.320463
Gh(O)     -1.884440    -1.671342     2.485385
Gh(H)     -1.607087    -1.301256     1.617131
Gh(H)     -1.710697    -2.626941     2.322726
O         -0.392709    -1.832615    -2.914916
H         -0.373963    -1.332135    -2.100379
H         -0.385090    -1.142787    -3.601259
Gh(O)      2.389714    -2.096131    -1.711884
Gh(H)      1.528994    -2.124078    -1.386041
Gh(H)      2.910463    -1.647935    -1.049521

units ang
no_reorient
no_com
symmetry c1
}

set {
basis        aug-cc-pVTZ
scf_type     df
}

energy("mp2")
