MEMORY 60 GB

molecule dimer {
-1 1
Br     0.000000     0.000000     0.000000
--
0 1
O      0.648956     3.052833    -0.910767
H      0.221036     2.238654    -0.688052
H      0.274889     3.810621    -0.399241
O     -3.547804     0.036909     0.397669
H     -3.709002     0.859644     0.826066
H     -2.626536    -0.211847     0.219525
O     -1.365510     1.033202    -2.554714
H     -0.976789     1.936597    -2.537138
H     -1.154285     0.547997    -1.730847
O      1.788958    -0.833292    -2.658545
H      1.515672    -0.412503    -3.446617
H      1.281287    -0.326220    -1.983247
O     -0.063313     2.516803     2.353453
H      0.132725     1.913084     1.615962
H     -0.436989     3.341547     2.033875

units ang
no_reorient
no_com
symmetry c1
}

set {
basis        aug-cc-pVTZ
scf_type     df
}

energy("mp2", bsse_type="cp")
