MEMORY 60 GB

molecule dimer {
-1 1
Br     0.000000     0.000000     0.000000
--
0 1
O      3.157564    -0.938804     1.002837
H      2.741539    -1.572686     1.601074
H      2.435256    -0.515105     0.528841
O     -1.178261     3.348443    -0.543747
H     -0.877405     4.142222    -0.123462
H     -0.618048     2.578310    -0.290120
O     -0.155000     1.255906    -3.193252
H     -0.202310     0.622118    -3.920435
H     -0.213318     0.808213    -2.353788
O      0.562600     1.647077     2.887295
H      0.576374     0.972541     2.201725
H     -0.160115     1.355841     3.512740
O      1.977093     2.382932     0.020064
H      1.569982     3.008419     0.619026
H      1.465597     1.557824     0.009689

units ang
no_reorient
no_com
symmetry c1
}

set {
basis        aug-cc-pVTZ
scf_type     df
}

energy("mp2", bsse_type="cp")
