MEMORY 60 GB

molecule dimer {
-1 1
Br     0.000000     0.000000     0.000000
--
0 1
O     -0.182304     3.494170    -0.605864
H      0.120242     3.914423     0.257357
H      0.132300     2.594793    -0.587648
O     -2.270989    -2.543796    -0.135242
H     -1.629269    -1.818732    -0.214141
H     -2.769596    -2.373792     0.665191
O     -2.622852     0.829441    -1.960167
H     -1.727443     0.478275    -1.721753
H     -2.825376     0.371547    -2.777806
O     -0.227539    -1.062518     3.239792
H     -0.110948    -1.919017     2.769254
H     -0.127755    -0.388440     2.591113
O      3.140969     1.639494    -0.214309
H      3.024015     2.037304    -1.045371
H      2.229103     1.295954     0.003369

units ang
no_reorient
no_com
symmetry c1
}

set {
basis        aug-cc-pVTZ
scf_type     df
}

energy("mp2", bsse_type="cp")
