MEMORY 60 GB

molecule dimer {
-1 1
Br     0.000000     0.000000     0.000000
--
0 1
O     -1.507113     3.153677     0.727512
H     -1.401126     3.534901     1.636011
H     -1.273360     2.251134     0.805090
O     -2.527257    -1.576289    -1.788391
H     -3.096049    -1.956530    -1.125070
H     -1.908040    -0.983812    -1.315649
O      2.401260     2.203563     1.435866
H      2.471673     2.594887     0.539971
H      1.670040     1.582303     1.398800
O     -1.730997    -2.235948     1.893891
H     -2.644870    -2.455969     1.750518
H     -1.534443    -1.597829     1.213875
O     -3.550632     0.657093     0.107045
H     -4.037137     1.096145    -0.565114
H     -2.546666     0.700240     0.067458
O      1.905718    -2.442782    -1.403529
H      2.150010    -1.702909    -1.963940
H      1.197651    -2.188600    -0.858966

units ang
no_reorient
no_com
symmetry c1
}

set {
basis        aug-cc-pVTZ
scf_type     df
}

energy("mp2", bsse_type="cp")
