MEMORY 60 GB

molecule dimer {
1 1
Li     0.000000     0.000000     0.000000
--
0 1
O      2.783635     0.000000     0.000000
H      3.368640     0.763729     0.000000
H      3.368640    -0.763729     0.000000
O     -2.783635     0.000000     0.000000
H     -3.368638    -0.763729     0.000000
H     -3.368638     0.763729     0.000000

units ang
no_reorient
no_com
symmetry c1
}

set {
basis        aug-cc-pVTZ
scf_type     df
}

energy("sapt2+")
