MEMORY 60 GB

molecule dimer {
1 1
Na     0.000000     0.000000     0.000000
--
0 1
O      2.346790     0.000000     0.000000
H      2.935748     0.759416     0.000000
H      2.935748    -0.759416     0.000000
O     -2.346790     0.000000     0.000000
H     -2.935748    -0.759416     0.000000
H     -2.935748     0.759416     0.000000

units ang
no_reorient
no_com
symmetry c1
}

set {
basis        aug-cc-pVTZ
scf_type     df
}

energy("sapt2+")
