MEMORY 60 GB

molecule dimer {
1 1
Li     0.000000     0.000000     0.000000
--
0 1
O      1.662605     0.000000    -0.979518
H      2.073385     0.762027    -1.395425
H      2.073385    -0.762027    -1.395425
O     -1.663924     0.000000    -0.977575
H     -2.075145     0.762032    -1.393035
H     -2.075145    -0.762032    -1.393035
O      0.000286     1.663355     0.978432
H     -0.761642     2.074836     1.393818
H      0.762446     2.074902     1.393328
O      0.000286    -1.663355     0.978432
H     -0.761642    -2.074835     1.393818
H      0.762446    -2.074902     1.393328

units ang
no_reorient
no_com
symmetry c1
}

set {
basis        aug-cc-pVTZ
scf_type     df
}

energy("sapt2+")
