MEMORY 60 GB

molecule dimer {
-1 1
F      0.000000     0.000000     0.000000
--
0 1
O      1.677212     2.104076     0.289600
H      1.175630     1.266150     0.292215
H      1.130565     2.649655    -0.280699
O     -0.997221     1.898476    -1.545274
H     -0.545634     1.218200    -0.997850
H     -1.844856     1.965956    -1.097195
O     -2.630696    -0.031288     0.479374
H     -1.657308     0.067160     0.454563
H     -2.765321    -0.562460    -0.312822
O     -0.391423    -1.847133     1.944246
H     -0.080552    -1.217752     1.266672
H     -1.336976    -1.679003     1.933275
O     -1.321952    -1.133929    -2.070236
H     -0.726672    -0.928694    -1.323045
H     -1.403279    -0.263621    -2.472540

units ang
no_reorient
no_com
symmetry c1
}

set {
basis        aug-cc-pVTZ
scf_type     df
}

energy("sapt2+")
