MEMORY 60 GB

molecule dimer {
0 1
O      0.000000     0.000000     0.000000
H      0.364626     0.889565     0.000000
H     -0.952699     0.129007     0.000000
--
1 1
Na     2.158940     0.000000     0.000000

units ang
no_reorient
no_com
symmetry c1
}

set {
basis        aug-cc-pVTZ
scf_type     df
}

energy("sapt2+")
