MEMORY 60 GB

molecule dimer {
0 1
O      0.000000     0.000000     0.000000
H      0.522003     0.609884    -0.522003
H      0.352290    -0.936372    -0.352290
--
-1 1
F      2.426389     0.000000     0.000000

units ang
no_reorient
no_com
symmetry c1
}

set {
basis        aug-cc-pVTZ
scf_type     df
}

energy("sapt2+")
