MEMORY 60 GB

molecule dimer {
0 1
O      0.000000     0.000000     0.000000
H      0.063121     0.954608    -0.109329
H     -0.477304    -0.126242     0.826714
--
1 1
Li     1.828878     0.000000     0.000000

units ang
no_reorient
no_com
symmetry c1
}

set {
basis        aug-cc-pVTZ
scf_type     df
}

energy("sapt2+")
