MEMORY 60 GB

molecule dimer {
0 1
Br     0.000000     0.000000     0.000000
Li     0.000000     2.170734     0.000000
--
1 1
Li     3.256101     0.000000     0.000000

units ang
no_reorient
no_com
symmetry c1
}

set {
basis        aug-cc-pVTZ
scf_type     df
}

energy("sapt2+")
