MEMORY 60 GB

molecule dimer {
1 1
Li     0.000000     0.000000     0.000000
--
0 1
O      0.778758    -0.677263     1.669262
H      0.156902    -1.291452     2.063438
H      1.726307    -1.001041     1.653786
O     -0.201146     1.717887    -0.567701
H     -0.877478     2.173081    -0.028194
H     -0.676930     1.554022    -1.382573
O      0.498720    -1.024337    -1.589394
H      0.287247    -0.644818    -2.452001
H      1.305141    -1.493530    -1.587149
O     -1.985305    -0.778725    -0.196160
H     -2.154204    -1.191439    -1.039674
H     -2.698583    -0.134123    -0.133709

units ang
no_reorient
no_com
symmetry c1
}

set {
basis        aug-cc-pVTZ
scf_type     df
}

energy("sapt2+")
