MEMORY 60 GB

molecule dimer {
1 1
Li     0.000000     0.000000     0.000000
--
0 1
O      0.219560    -0.265810     2.012776
H      0.521880    -0.931016     2.699863
H     -0.159480     0.513072     2.429735
O      1.524244     0.531832    -0.864764
H      2.438492     0.209908    -0.974378
H      1.411270     1.193130    -1.596493
O     -0.434713    -1.802003    -0.583452
H     -1.078675    -2.086057     0.124510
H      0.349421    -2.345056    -0.533103
O     -1.896730     0.843373    -0.137028
H     -2.188506     0.658287    -0.989367
H     -2.580292     0.611598     0.561824

units ang
no_reorient
no_com
symmetry c1
}

set {
basis        aug-cc-pVTZ
scf_type     df
}

energy("sapt2+")
