MEMORY 60 GB

molecule dimer {
1 1
Li     0.000000     0.000000     0.000000
--
0 1
O      0.479299    -0.023155     2.040576
H      1.401203    -0.047344     1.992724
H      0.183700    -0.723857     2.589691
O      1.211465     0.917124    -1.085982
H      1.893267     0.250849    -1.335533
H      1.514507     1.731669    -0.789172
O      0.020647    -1.905313    -0.620925
H      0.710937    -2.493526    -1.007313
H     -0.763325    -2.495709    -0.483083
O     -1.823938     0.516909    -0.645776
H     -2.499709    -0.060327    -0.255399
H     -2.179640     1.399153    -0.823341

units ang
no_reorient
no_com
symmetry c1
}

set {
basis        aug-cc-pVTZ
scf_type     df
}

energy("sapt2+")
