MEMORY 60 GB

molecule dimer {
1 1
Li     0.000000     0.000000     0.000000
--
0 1
O     -0.956247     0.863490    -1.749096
H     -1.677330     0.462424    -2.223924
H     -1.171884     1.781797    -1.643295
O      1.646899     1.167929    -0.206984
H      2.398522     0.950578    -0.761776
H      2.002825     1.745984     0.467071
O     -1.376351     0.325273     1.324880
H     -1.378159    -0.485756     1.792733
H     -2.258884     0.513625     1.057259
O     -0.433367    -1.659207    -1.078943
H     -0.338542    -2.445579    -0.643428
H     -1.348443    -1.450485    -1.100673
O      1.111588    -0.959952     1.543776
H      0.882604    -1.906565     1.587702
H      2.069318    -0.934575     1.478701

units ang
no_reorient
no_com
symmetry c1
}

set {
basis        aug-cc-pVTZ
scf_type     df
}

energy("sapt2+")
