MEMORY 60 GB

molecule dimer {
1 1
Li     0.000000     0.000000     0.000000
--
0 1
O     -0.266443     1.938313    -0.248340
H     -0.088316     2.610611    -0.926278
H     -0.885622     2.402495     0.339436
O     -1.305581    -1.041945    -1.192735
H     -1.614892    -1.898100    -0.899961
H     -0.845776    -1.154356    -2.000716
O      2.066109    -0.498860    -0.290542
H      2.623530    -0.650184     0.499648
H      2.518418    -0.862145    -1.036711
O     -0.099893    -0.786188     1.651962
H      0.363831    -1.589227     1.918952
H     -1.018921    -0.908196     1.943922

units ang
no_reorient
no_com
symmetry c1
}

set {
basis        aug-cc-pVTZ
scf_type     df
}

energy("sapt2+")
