MEMORY 60 GB

molecule dimer {
1 1
Li     0.000000     0.000000     0.000000
--
0 1
O      1.891419    -0.158379     0.528671
H      2.349768    -0.987879     0.327543
H      1.829373    -0.013513     1.475622
O     -0.554841     1.482555     1.052622
H     -0.087815     1.879686     1.842708
H     -0.786767     2.214477     0.472406
O     -0.527123    -0.402664    -1.792316
H     -0.769570     0.305457    -2.402126
H     -0.735432    -1.286504    -2.275183

units ang
no_reorient
no_com
symmetry c1
}

set {
basis        aug-cc-pVTZ
scf_type     df
}

energy("sapt2+")
