MEMORY 60 GB

molecule dimer {
1 1
Li     0.000000     0.000000     0.000000
--
0 1
O     -1.588684    -0.034020     1.157610
H     -1.734204     0.297682     2.041051
H     -2.231280    -0.760891     1.129331
O      0.752858    -1.834769    -0.351999
H      0.203711    -2.620276    -0.124323
H      1.157037    -2.060091    -1.215316
O      0.239663     0.677904    -1.813970
H      0.022632     0.033005    -2.467301
H     -0.269429     1.542115    -2.063452

units ang
no_reorient
no_com
symmetry c1
}

set {
basis        aug-cc-pVTZ
scf_type     df
}

energy("sapt2+")
