MEMORY 60 GB

molecule dimer {
1 1
Li     0.000000     0.000000     0.000000
--
0 1
O      0.961071     1.351951     1.068468
H      0.543505     2.245666     1.123463
H      1.894820     1.439035     0.841481
O      1.418184    -0.868693    -1.271038
H      2.348027    -0.958677    -0.873231
H      1.382908    -1.525987    -1.963044
O     -1.084978    -1.202284     1.231747
H     -1.926492    -1.041220     1.657002
H     -0.514799    -1.668475     1.817292
O     -1.045399     0.614483    -1.372430
H     -0.839504     1.531726    -1.726197
H     -1.458688     0.162252    -2.113895

units ang
no_reorient
no_com
symmetry c1
}

set {
basis        aug-cc-pVTZ
scf_type     df
}

energy("sapt2+")
