MEMORY 60 GB

molecule dimer {
1 1
Li     0.000000     0.000000     0.000000
--
0 1
O     -0.007634    -1.023123    -1.511591
H      0.057973    -0.546603    -2.301212
H     -0.749478    -1.673774    -1.686888
O     -0.253781    -0.523552     1.861966
H      0.377486    -1.069012     2.381988
H     -0.297109     0.310860     2.309038
O     -0.726151     1.712601    -0.023638
H     -1.486107     2.345326    -0.255453
H      0.048758     2.312731    -0.026328
O      1.873846     0.435239     0.205989
H      2.286734    -0.048458    -0.478572
H      2.531118     0.339515     0.930741

units ang
no_reorient
no_com
symmetry c1
}

set {
basis        aug-cc-pVTZ
scf_type     df
}

energy("sapt2+")
