MEMORY 60 GB

molecule dimer {
1 1
Li     0.000000     0.000000     0.000000
--
0 1
O      1.056062    -1.621139     0.605492
H      0.657898    -1.924066     1.466835
H      0.678270    -2.222927    -0.068093
O     -1.664286    -1.351635    -0.323212
H     -2.097255    -1.625415     0.520939
H     -1.181759    -2.115258    -0.708871
O      1.307126     0.723288    -1.076590
H      1.447275     1.658691    -1.070913
H      1.155631     0.530295    -2.029499
O     -0.786428     0.739205     1.471793
H     -1.448992     0.238338     1.921415
H     -1.179357     1.636730     1.603301

units ang
no_reorient
no_com
symmetry c1
}

set {
basis        aug-cc-pVTZ
scf_type     df
}

energy("sapt2+")
