MEMORY 60 GB

molecule dimer {
1 1
Na     0.000000     0.000000     0.000000
--
0 1
O     -0.085993    -0.051936     2.343220
H     -0.599866    -0.003832     3.188434
H      0.778341    -0.468547     2.524807
O      2.159561    -1.126299    -0.201753
H      1.903159    -2.089420    -0.306342
H      2.923664    -1.015931     0.394549
O     -0.673308    -2.158843    -0.874591
H      0.102825    -2.750161    -0.727233
H     -1.552860    -2.612781    -0.616624
O     -2.368348     0.405229     0.230721
H     -3.034658    -0.039810    -0.350273
H     -2.312455    -0.001856     1.105513
O      0.056969     1.381147    -1.944871
H     -0.073372     0.905950    -2.745897
H     -0.537018     2.128393    -2.087984

units ang
no_reorient
no_com
symmetry c1
}

set {
basis        aug-cc-pVTZ
scf_type     df
}

energy("sapt2+")
