MEMORY 60 GB

molecule dimer {
1 1
Na     0.000000     0.000000     0.000000
--
0 1
O     -1.365784     1.888773     0.128336
H     -1.127056     2.523638    -0.548341
H     -2.084338     1.268663    -0.087383
O      1.933277     1.190155     1.145330
H      2.694356     1.300756     0.519806
H      1.814910     2.060976     1.520495
O     -0.418772    -0.363065    -2.238699
H     -1.093240     0.117831    -2.640346
H      0.385868    -0.155367    -2.718085
O     -1.360209    -0.721731     1.772667
H     -0.830785    -1.124783     2.509665
H     -1.649374     0.155797     2.059176
O      1.649637    -1.718358    -0.019721
H      1.060619    -2.517490    -0.072430
H      2.004692    -1.689554    -0.966746

units ang
no_reorient
no_com
symmetry c1
}

set {
basis        aug-cc-pVTZ
scf_type     df
}

energy("sapt2+")
