MEMORY 60 GB

molecule dimer {
1 1
Na     0.000000     0.000000     0.000000
--
0 1
O     -0.835240     0.473484     2.119495
H     -0.454693     1.245275     2.586267
H     -1.132360    -0.183285     2.785897
O      0.033539    -2.290098    -0.664363
H     -0.004054    -2.576443     0.261397
H      0.855844    -2.546782    -1.166561
O      1.583864     1.928752    -0.019939
H      1.499354     1.829133    -1.014737
H      1.387146     2.888641     0.263931

units ang
no_reorient
no_com
symmetry c1
}

set {
basis        aug-cc-pVTZ
scf_type     df
}

energy("sapt2+")
