MEMORY 60 GB

molecule dimer {
1 1
Na     0.000000     0.000000     0.000000
--
0 1
O      0.766127     0.515039     1.981709
H      1.319922    -0.208424     2.371871
H      0.227460     0.853158     2.684082
O      1.024406     2.176228    -1.057194
H      1.536833     2.576739    -0.331655
H      0.165288     2.624778    -1.158303
O     -0.492044    -0.696903    -2.430464
H      0.340264    -0.313786    -2.821962
H     -0.852891    -1.398862    -2.972918
O     -2.210786     0.705829     0.674056
H     -2.694782     0.461413     1.505258
H     -2.606634     1.473977     0.320053

units ang
no_reorient
no_com
symmetry c1
}

set {
basis        aug-cc-pVTZ
scf_type     df
}

energy("sapt2+")
