MEMORY 60 GB

molecule dimer {
1 1
Na     0.000000     0.000000     0.000000
--
0 1
O     -0.176977     1.686618    -2.008264
H     -0.632707     2.516626    -2.104365
H      0.159539     1.416134    -2.919306
O      1.634007    -0.997109    -1.357904
H      1.486035    -0.968361    -2.307521
H      1.460201    -1.819247    -0.910788
O      1.120484    -0.081834     2.153587
H      1.506776     0.791182     2.044304
H      0.522102    -0.043865     2.978173
O     -1.063075    -1.858798     0.142341
H     -1.368323    -2.410910     0.865620
H     -1.298628    -2.180823    -0.693113
O     -0.084576     2.215043     0.683941
H     -0.140511     2.320130     1.634745
H      0.316926     3.119409     0.463861

units ang
no_reorient
no_com
symmetry c1
}

set {
basis        aug-cc-pVTZ
scf_type     df
}

energy("sapt2+")
