MEMORY 60 GB

molecule dimer {
1 1
Na     0.000000     0.000000     0.000000
--
0 1
O      1.692917     1.592615     0.480622
H      2.586663     1.486171     0.100037
H      1.727856     2.356221     1.061969
O     -1.389429    -1.947879    -0.873259
H     -0.995256    -2.536833    -1.500073
H     -2.243648    -1.766646    -1.123488
O      2.076813    -1.377446     0.020620
H      2.625603    -2.126282    -0.266841
H      2.516735    -1.045054     0.792393
O     -0.594482     1.641239    -1.699071
H      0.125257     2.036144    -2.302619
H     -1.490431     1.945166    -1.907436
O     -1.394789     1.438669     1.679367
H     -2.318786     1.491294     1.965205
H     -1.357392     2.233936     1.154702

units ang
no_reorient
no_com
symmetry c1
}

set {
basis        aug-cc-pVTZ
scf_type     df
}

energy("sapt2+")
