MEMORY 60 GB

molecule dimer {
1 1
K      0.000000     0.000000     0.000000
--
0 1
O      0.913124     1.392044     2.215266
H      0.107898     1.589882     2.707194
H      1.074752     2.048582     1.547337
O      2.026680    -1.153352    -1.012698
H      2.858159    -1.449304    -0.567475
H      2.342505    -0.543742    -1.689308
O     -1.825857    -2.133558     0.355993
H     -1.430944    -2.920093     0.805392
H     -1.781389    -2.429058    -0.509967
O     -1.999435     0.997352    -1.712310
H     -1.916758     1.159308    -2.674599
H     -2.643508     1.624790    -1.332880
O     -2.230302     0.207585     1.991219
H     -2.672649     0.382701     2.901728
H     -2.200317    -0.765324     1.906808

units ang
no_reorient
no_com
symmetry c1
}

set {
basis        aug-cc-pVTZ
scf_type     df
}

energy("sapt2+")
