MEMORY 60 GB

molecule dimer {
1 1
K      0.000000     0.000000     0.000000
--
0 1
O      1.288020     2.048155    -1.363242
H      2.289687     1.970546    -1.403737
H      1.067139     2.374250    -2.284171
O      1.081330    -2.084572    -0.974603
H      1.681074    -1.891306    -1.699856
H      0.899362    -3.081487    -1.002484
O      1.484184     1.194304     2.136076
H      1.433747     1.868088     2.889056
H      1.422654     0.344614     2.575615
O     -2.340818    -0.324700    -1.276031
H     -3.288057    -0.073244    -1.237822
H     -2.441854    -1.272455    -1.265717
O     -1.588027    -0.288334     1.906629
H     -1.962376     0.465498     2.313524
H     -1.373894    -0.914990     2.624297

units ang
no_reorient
no_com
symmetry c1
}

set {
basis        aug-cc-pVTZ
scf_type     df
}

energy("sapt2+")
