MEMORY 60 GB

molecule dimer {
1 1
K      0.000000     0.000000     0.000000
--
0 1
O      0.943634     1.540384    -2.239203
H      1.835162     1.914466    -2.211791
H      0.256757     2.195615    -2.041790
O     -1.920742    -0.633797    -1.813826
H     -2.580219    -1.072039    -1.329826
H     -2.116309     0.283541    -1.612310
O     -1.787723     1.870031     1.131142
H     -2.161469     2.114690     0.289051
H     -1.202138     2.601312     1.399681
O      0.489597    -2.771440    -0.697134
H      1.059577    -2.807431    -1.496358
H      0.870276    -3.282004     0.035325

units ang
no_reorient
no_com
symmetry c1
}

set {
basis        aug-cc-pVTZ
scf_type     df
}

energy("sapt2+")
