MEMORY 60 GB

molecule dimer {
1 1
K      0.000000     0.000000     0.000000
--
0 1
O      1.994248    -0.017398     1.891531
H      1.707381    -0.444684     2.688689
H      2.464755     0.808222     2.122342
O     -0.735496     2.189679     1.691371
H     -0.954476     2.443049     2.639599
H     -0.466618     3.047346     1.358724
O      1.549750     2.058046    -0.852344
H      1.913323     2.259444    -1.747396
H      2.335189     2.116884    -0.306564
O     -1.132510     0.224565    -2.466410
H     -0.537321     0.540552    -3.138504
H     -1.916525     0.761111    -2.341546
O      1.250518    -2.229136    -0.395405
H      1.391367    -3.033811    -0.861489
H      1.939666    -2.169610     0.267770

units ang
no_reorient
no_com
symmetry c1
}

set {
basis        aug-cc-pVTZ
scf_type     df
}

energy("sapt2+")
