MEMORY 60 GB

molecule dimer {
1 1
K      0.000000     0.000000     0.000000
--
0 1
O      2.433312    -0.711261    -0.876073
H      3.025721     0.045558    -0.738606
H      2.646594    -0.978885    -1.800154
O      0.729442     2.374627     0.909651
H      1.436876     2.682600     1.537697
H      0.607664     3.130167     0.287856
O     -0.423164    -2.596708     0.556853
H     -0.086692    -3.420156     0.268816
H     -0.158458    -2.540686     1.533756
O     -2.766398    -1.080563     0.470208
H     -2.207598    -1.857753     0.314154
H     -3.672582    -1.339756     0.204091
O     -0.915396    -1.287261    -2.285458
H     -1.083095    -2.273539    -2.500910
H     -0.460494    -0.980307    -3.123591

units ang
no_reorient
no_com
symmetry c1
}

set {
basis        aug-cc-pVTZ
scf_type     df
}

energy("sapt2+")
