MEMORY 60 GB

molecule dimer {
1 1
K      0.000000     0.000000     0.000000
--
0 1
O      2.447443     0.085993    -0.685068
H      2.680985    -0.837747    -0.449500
H      2.829525     0.251364    -1.547070
O     -0.233139     0.163157    -2.500787
H     -0.170321     1.052496    -2.894868
H     -0.081279    -0.518299    -3.176040
O      0.572340    -2.370612     0.170271
H      1.401491    -2.685494    -0.138462
H      0.365707    -2.920483     0.932021
O     -1.422337    -0.715469     2.174589
H     -1.861433     0.134559     2.211240
H     -0.761789    -0.679178     2.924485
O     -0.712298     2.966230    -0.259699
H     -1.087339     3.581553    -0.884928
H      0.231785     2.928736    -0.444753

units ang
no_reorient
no_com
symmetry c1
}

set {
basis        aug-cc-pVTZ
scf_type     df
}

energy("sapt2+")
