MEMORY 60 GB

molecule dimer {
1 1
K      0.000000     0.000000     0.000000
--
0 1
O      2.852757    -0.334051    -0.186806
H      3.665059    -0.772002     0.113705
H      2.976979    -0.248733    -1.158383
O     -1.826235    -0.322399    -1.984574
H     -1.297659    -0.061936    -2.754238
H     -1.684865    -1.318774    -1.991083
O     -0.349652    -2.346622     1.050442
H      0.209215    -3.119233     1.249847
H     -1.269300    -2.641149     1.131510
O     -1.923855    -0.178301     2.183220
H     -1.437654    -1.016009     2.224042
H     -2.508504    -0.247868     1.457316
O      0.850534    -1.021556    -2.165011
H      0.594881    -1.697915    -2.784155
H      1.648642    -0.724977    -2.660875

units ang
no_reorient
no_com
symmetry c1
}

set {
basis        aug-cc-pVTZ
scf_type     df
}

energy("sapt2+")
