MEMORY 60 GB

molecule dimer {
1 1
K      0.000000     0.000000     0.000000
--
0 1
O      1.803653    -1.847112     0.206100
H      1.708783    -2.680683    -0.284385
H      2.119183    -2.134639     1.088298
O     -2.728888     0.492668     0.134493
H     -3.517786     0.992519    -0.173322
H     -3.011923    -0.394222     0.363049
O      1.771017     1.498733     1.768874
H      2.165305     0.873233     2.367554
H      2.327225     2.217179     1.679509
O     -1.232019    -2.027642    -1.142992
H     -0.978584    -2.636571    -1.824547
H     -1.720507    -2.476302    -0.401567
O      0.256748     1.390877    -2.161874
H     -0.134506     2.251599    -2.418476
H      1.075887     1.688448    -1.702877

units ang
no_reorient
no_com
symmetry c1
}

set {
basis        aug-cc-pVTZ
scf_type     df
}

energy("sapt2+")
