MEMORY 60 GB

molecule dimer {
1 1
K      0.000000     0.000000     0.000000
--
0 1
O      0.381547    -2.552558    -1.504867
H      1.305011    -2.508122    -1.562112
H      0.195752    -3.068888    -0.743103
O     -2.152753    -1.918638    -0.513085
H     -3.032715    -1.893013    -0.107358
H     -2.129564    -2.762877    -0.889215
O      1.881209    -1.325987     1.692441
H      2.801171    -1.317073     1.472737
H      1.822881    -1.212799     2.637718
O     -0.856008     2.370718     1.286842
H     -1.091753     2.561565     2.221772
H     -0.547518     3.153373     0.860940
O     -0.195392     1.168538    -2.406268
H      0.427603     1.930953    -2.467495
H     -0.179593     0.694044    -3.196332

units ang
no_reorient
no_com
symmetry c1
}

set {
basis        aug-cc-pVTZ
scf_type     df
}

energy("sapt2+")
