MEMORY 60 GB

molecule dimer {
1 1
K      0.000000     0.000000     0.000000
--
0 1
O     -0.502703    -2.334457    -1.283675
H      0.237008    -2.749133    -1.803266
H     -1.286908    -2.624519    -1.722892
O      2.099037     0.906527     1.636457
H      2.896740     1.100518     1.113670
H      1.969279     1.530828     2.370669
O      0.462307     2.678042    -0.359156
H      0.213104     2.711476    -1.330404
H      1.161890     3.384492    -0.307642
O      1.843513    -0.310552    -1.771290
H      2.148881     0.527834    -2.195735
H      2.570572    -0.916573    -1.716041
O     -2.431167     1.182859    -0.447565
H     -2.521700     1.224046    -1.399351
H     -2.195533     2.014004     0.091471

units ang
no_reorient
no_com
symmetry c1
}

set {
basis        aug-cc-pVTZ
scf_type     df
}

energy("sapt2+")
