MEMORY 60 GB

molecule dimer {
1 1
K      0.000000     0.000000     0.000000
--
0 1
O      2.076023    -1.563908     0.741741
H      2.860617    -0.996316     0.828705
H      1.615351    -1.618906     1.563939
O     -1.095486     0.399597     2.643072
H     -0.801901     1.238172     2.228137
H     -2.076198     0.356254     2.753986
O     -2.028741     1.602653    -1.083314
H     -2.848075     1.047294    -0.966116
H     -1.766923     1.523944    -2.040760
O      0.327369     2.348814     1.409380
H      0.118789     3.251871     1.602415
H      1.209539     2.243806     1.770572
O      2.277164     1.411722    -0.881632
H      2.742637     1.640937    -0.087027
H      2.895810     0.946922    -1.465846
O      0.049667    -1.666994    -2.004447
H     -0.029129    -1.163117    -2.830753
H      0.898871    -2.063134    -2.055004

units ang
no_reorient
no_com
symmetry c1
}

set {
basis        aug-cc-pVTZ
scf_type     df
}

energy("sapt2+")
