MEMORY 60 GB

molecule dimer {
1 1
K      0.000000     0.000000     0.000000
--
0 1
O     -1.729110    -1.440725    -1.595164
H     -2.115495    -2.310628    -1.338981
H     -0.967161    -1.699838    -2.095225
O      0.740104    -1.194157    -2.503143
H      1.668496    -1.305924    -2.331578
H      0.556187    -0.378147    -2.935790
O      2.193072    -0.562674     1.394934
H      2.531896     0.323809     1.640430
H      3.009910    -1.052773     1.088316
O     -1.344795     2.320045    -0.663814
H     -1.343982     2.818484     0.147861
H     -0.624916     2.584864    -1.279756

units ang
no_reorient
no_com
symmetry c1
}

set {
basis        aug-cc-pVTZ
scf_type     df
}

energy("sapt2+")
