MEMORY 60 GB

molecule dimer {
1 1
K      0.000000     0.000000     0.000000
--
0 1
O      1.648898    -1.546006    -1.857996
H      2.092535    -1.100966    -2.598197
H      2.194052    -2.356053    -1.700477
O     -1.568301     2.383087    -1.001812
H     -1.802415     2.237050    -1.910497
H     -1.213233     3.238371    -0.886325
O      2.091592     1.900784     0.705839
H      2.615292     1.641900     1.402222
H      2.546075     1.586819    -0.079299
O      0.683124    -2.379385     1.323810
H      1.575264    -2.320863     1.667866
H      0.490384    -3.085364     0.686686
O     -1.338183    -0.586736    -2.404592
H     -2.281260    -0.401331    -2.486804
H     -1.244841    -1.567581    -2.320192
O     -2.060914     0.053466     1.559508
H     -2.771129     0.606849     1.759945
H     -2.154751    -0.845782     1.906871

units ang
no_reorient
no_com
symmetry c1
}

set {
basis        aug-cc-pVTZ
scf_type     df
}

energy("sapt2+")
