MEMORY 60 GB

molecule dimer {
1 1
K      0.000000     0.000000     0.000000
--
0 1
O      0.895746    -2.809245     0.265910
H      0.384997    -3.536149    -0.142487
H      0.462734    -2.701620     1.110776
O     -1.994843    -0.515921    -1.954607
H     -2.538615    -1.207236    -1.506788
H     -2.614613     0.221095    -1.966914
O     -0.644379     2.208825    -1.255866
H     -0.268331     2.958551    -0.857534
H     -1.592764     2.260054    -1.104169

units ang
no_reorient
no_com
symmetry c1
}

set {
basis        aug-cc-pVTZ
scf_type     df
}

energy("sapt2+")
