MEMORY 60 GB

molecule dimer {
-1 1
F      0.000000     0.000000     0.000000
--
0 1
O     -0.918718    -1.531255    -2.236425
H     -1.762517    -1.144066    -2.152129
H     -0.451980    -0.957002    -1.606841
O     -0.057855     2.757139     0.823387
H     -0.153772     1.814368     0.834672
H     -0.644771     3.064484     1.455290
O      1.183092     0.237041     2.441939
H      0.725475     0.249679     1.564024
H      0.548909    -0.085551     3.073061
O      2.058890     1.227888    -1.022105
H      2.856425     0.854090    -0.614010
H      1.361978     0.734019    -0.723384
O     -2.424987    -0.275944     1.596124
H     -3.071738    -0.606061     1.013613
H     -1.631010    -0.040803     1.039161
O      1.888808    -2.378152     0.345578
H      1.283712    -1.599836     0.235615
H      1.406826    -3.176557     0.608323

units ang
no_reorient
no_com
symmetry c1
}

set {
basis        aug-cc-pVTZ
scf_type     df
}

energy("sapt2+")
