MEMORY 60 GB

molecule dimer {
-1 1
F      0.000000     0.000000     0.000000
--
0 1
O     -1.051876     0.397188    -2.664526
H     -0.485530    -0.258494    -3.098839
H     -0.784316     0.374530    -1.766571
O     -0.548980    -2.889172    -0.876141
H     -0.402675    -1.956604    -0.860721
H      0.114136    -3.180631    -1.543791
O      0.945837     1.626921     2.124282
H      0.821758     1.095363     1.318237
H      0.313788     1.263948     2.804817
O      2.426736     0.456517    -1.371097
H      2.283500     1.268623    -1.938041
H      1.590392     0.293672    -0.864561
O     -2.021952    -0.732353     1.474827
H     -2.053094    -1.698175     1.306604
H     -1.260753    -0.350683     0.971493
O      2.023011    -1.613709     1.503423
H      1.169042    -1.189349     1.339393
H      1.933657    -2.225891     2.263621

units ang
no_reorient
no_com
symmetry c1
}

set {
basis        aug-cc-pVTZ
scf_type     df
}

energy("sapt2+")
