MEMORY 60 GB

molecule dimer {
-1 1
F      0.000000     0.000000     0.000000
--
0 1
O     -1.599124     1.023579    -2.267830
H     -1.095004     0.566212    -1.620752
H     -2.338051     0.444325    -2.479137
O     -2.343446    -0.430618     1.559407
H     -1.488327    -0.319284     1.147914
H     -2.658215     0.396947     1.860568
O     -1.204583    -2.106759    -1.342688
H     -2.121289    -2.045476    -1.127318
H     -0.755091    -1.622357    -0.621682
O      1.437032    -1.588073     1.754632
H      0.692906    -2.061247     2.155763
H      1.089729    -0.888662     1.135098
O      2.067070    -0.264464    -2.019076
H      1.308735    -0.187229    -1.415516
H      2.146809     0.663476    -2.287155

units ang
no_reorient
no_com
symmetry c1
}

set {
basis        aug-cc-pVTZ
scf_type     df
}

energy("sapt2+")
