MEMORY 60 GB

molecule dimer {
-1 1
F      0.000000     0.000000     0.000000
--
0 1
O      1.549726    -0.592173    -2.469497
H      2.491955    -0.304027    -2.354979
H      1.059966    -0.129118    -1.739114
O     -2.109158     0.552064     1.527417
H     -1.303685     0.262813     1.105559
H     -2.150940     1.467686     1.236099
O     -0.658953     2.609487    -0.786580
H     -0.277803     1.841298    -0.414688
H     -1.429545     2.816178    -0.200283
O      1.311910    -1.653315     1.534469
H      0.833433    -0.988070     1.037024
H      0.695205    -2.456602     1.463667
O     -1.617297    -0.996617    -2.102888
H     -1.802101    -0.062886    -2.375282
H     -1.153428    -0.952167    -1.276978

units ang
no_reorient
no_com
symmetry c1
}

set {
basis        aug-cc-pVTZ
scf_type     df
}

energy("sapt2+")
