MEMORY 60 GB

molecule dimer {
-1 1
F      0.000000     0.000000     0.000000
--
0 1
O     -0.286622    -1.514715     2.435167
H     -0.402152    -1.045189     1.569146
H      0.608407    -1.883599     2.387395
O     -2.461253    -1.232960    -1.069186
H     -1.653607    -1.018445    -0.593070
H     -2.664912    -0.521743    -1.698566
O      2.627690     1.043131    -0.166942
H      2.582567     0.776855    -1.104331
H      1.672597     0.976927     0.122659
O      0.537003    -1.242099    -2.661767
H      0.000214    -0.978346    -3.428741
H      0.354593    -0.727473    -1.893451
O     -1.468053     1.104063     2.129759
H     -0.967829     0.901328     1.361246
H     -2.109567     0.364225     2.248548
O      1.926326    -2.436781     0.093481
H      2.827091    -2.287496     0.347949
H      1.352146    -1.641731     0.155321
O     -0.916969     2.226321    -1.648781
H     -1.489975     1.706670    -2.249404
H     -0.532336     1.455566    -1.146943

units ang
no_reorient
no_com
symmetry c1
}

set {
basis        aug-cc-pVTZ
scf_type     df
}

energy("sapt2+")
