MEMORY 60 GB

molecule dimer {
-1 1
F      0.000000     0.000000     0.000000
--
0 1
O      2.510030    -0.661941    -0.832182
H      3.047987     0.136114    -0.766474
H      1.651515    -0.398683    -0.437510
O     -1.861163     1.391541     1.823140
H     -1.395324     0.891965     1.132552
H     -2.167141     2.148676     1.326070
O     -0.069818    -1.825737     1.950594
H      0.658754    -2.446451     1.867536
H     -0.032357    -1.190493     1.210077
O      2.118804     1.277032     1.563138
H      2.238847     0.825714     2.421086
H      1.328717     0.912441     1.134542
O     -2.940937    -0.619005    -0.168957
H     -2.026060    -0.454747    -0.472925
H     -3.379101    -1.135452    -0.844734
O      0.534776     0.816487    -2.672079
H      0.728932     1.193376    -1.819618
H     -0.414644     0.967166    -2.819436

units ang
no_reorient
no_com
symmetry c1
}

set {
basis        aug-cc-pVTZ
scf_type     df
}

energy("sapt2+")
