MEMORY 60 GB

molecule dimer {
-1 1
F      0.000000     0.000000     0.000000
--
0 1
O      0.705041     0.085824     2.845836
H      0.718042     0.221437     1.918408
H      1.585010     0.151425     3.189331
O      1.846277     0.095164    -2.146633
H      2.732713    -0.105605    -1.756703
H      1.254731     0.091480    -1.406651
O     -2.274277     0.593945    -1.273101
H     -2.701262    -0.233434    -0.967959
H     -1.360007     0.511388    -0.932384
O      1.896841    -1.872735     0.495161
H      1.093557    -1.387163     0.388915
H      2.667595    -1.391507     0.177125
O      1.052918     2.610822     1.020224
H      0.691159     1.833771     0.662648
H      1.468412     2.477073     1.892293

units ang
no_reorient
no_com
symmetry c1
}

set {
basis        aug-cc-pVTZ
scf_type     df
}

energy("sapt2+")
