MEMORY 60 GB

molecule dimer {
-1 1
F      0.000000     0.000000     0.000000
--
0 1
O      0.939133     2.246448    -1.810299
H      0.182154     2.339815    -2.431459
H      0.631445     1.529279    -1.221823
O      0.333738     1.798982     2.158341
H      0.266377     1.191470     1.384322
H     -0.480834     1.721529     2.716331
O     -2.404593     1.393581     0.312901
H     -2.408128     1.153754     1.258151
H     -1.572145     1.037122    -0.045040
O      1.919438    -1.311444    -1.308668
H      1.124707    -0.870402    -0.913735
H      2.164585    -2.064254    -0.748678
O      1.220508    -1.402945     2.234795
H      0.781895    -2.282298     2.115950
H      0.768841    -0.858246     1.533477
O     -1.412038    -2.154855    -1.604480
H     -2.091893    -1.650807    -2.061775
H     -1.081371    -1.383401    -1.077126

units ang
no_reorient
no_com
symmetry c1
}

set {
basis        aug-cc-pVTZ
scf_type     df
}

energy("sapt2+")
