MEMORY 60 GB

molecule dimer {
-1 1
F      0.000000     0.000000     0.000000
--
0 1
O     -1.634092    -2.280820    -0.139745
H     -2.469094    -2.598153    -0.454292
H     -1.459954    -1.358967    -0.387524
O      2.308208    -1.014352     1.406738
H      2.138362    -1.947872     1.369305
H      1.553052    -0.587244     0.905967
O     -0.221383     0.329741     2.737359
H     -0.415990     0.182845     1.824673
H      0.050573     1.283931     2.640379
O      1.357013    -0.222007    -2.440875
H      1.051868    -0.181679    -1.581215
H      0.660440    -0.731668    -2.801612
O     -1.883257     1.778764    -0.837831
H     -1.474462     2.655647    -0.726004
H     -1.106142     1.188873    -0.668005

units ang
no_reorient
no_com
symmetry c1
}

set {
basis        aug-cc-pVTZ
scf_type     df
}

energy("sapt2+")
