MEMORY 60 GB

molecule dimer {
-1 1
F      0.000000     0.000000     0.000000
--
0 1
O      0.266469    -2.404656     1.201531
H     -0.633463    -2.712726     1.302485
H      0.132332    -1.593576     0.677383
O      2.063058     1.457481     1.160244
H      1.663140     1.837137     1.934730
H      1.358434     1.078668     0.675898
O     -2.665582    -0.685885     0.620014
H     -2.886730    -0.889932     1.510510
H     -1.770852    -0.247202     0.618308
O     -0.466229     2.894120     0.100297
H     -0.550035     1.915540     0.120147
H     -0.933453     3.301434     0.894465
O     -1.428658     0.445594    -2.381825
H     -2.319156     0.785428    -2.378532
H     -1.312007     0.123368    -1.502513
O      2.197488    -0.935719    -1.597882
H      1.331309    -0.620386    -1.258959
H      2.234943    -1.865177    -1.274134

units ang
no_reorient
no_com
symmetry c1
}

set {
basis        aug-cc-pVTZ
scf_type     df
}

energy("sapt2+")
