MEMORY 60 GB

molecule dimer {
-1 1
F      0.000000     0.000000     0.000000
--
0 1
O     -0.392888    -0.121012     2.785079
H     -0.259660    -0.152385     1.841015
H     -1.323429     0.233529     2.886423
O      1.463244    -0.030176    -2.287680
H      1.783413     0.869016    -2.171191
H      0.898165    -0.052833    -1.517520
O      2.491850    -0.524051     1.213339
H      2.257701    -1.257554     1.794479
H      1.655262    -0.339365     0.764832
O     -0.964522    -2.497486     0.718464
H     -0.421140    -3.026626     0.161927
H     -0.780543    -1.618486     0.321566
O     -2.126631     0.994699    -1.561757
H     -1.501523     1.040360    -0.888337
H     -2.679426     0.248197    -1.354555

units ang
no_reorient
no_com
symmetry c1
}

set {
basis        aug-cc-pVTZ
scf_type     df
}

energy("sapt2+")
