MEMORY 60 GB

molecule dimer {
-1 1
F      0.000000     0.000000     0.000000
--
0 1
O      1.599440     1.216847     1.915026
H      1.076424     0.939159     1.131161
H      2.405637     0.730202     1.630886
O     -1.950120     1.489343     1.254761
H     -2.210763     2.196777     0.595546
H     -1.188356     1.080520     0.800691
O      2.106700    -1.786745     0.194161
H      1.282870    -1.276896     0.082122
H      2.847852    -1.236742     0.198292
O     -1.971584    -2.024256    -0.027666
H     -2.186941    -2.154435     0.910808
H     -1.329755    -1.251018    -0.064590
O      0.901895     0.402744    -2.703264
H      0.603349     0.310057    -1.796013
H      1.403576     1.255826    -2.725926

units ang
no_reorient
no_com
symmetry c1
}

set {
basis        aug-cc-pVTZ
scf_type     df
}

energy("sapt2+")
