MEMORY 60 GB

molecule dimer {
-1 1
F      0.000000     0.000000     0.000000
--
0 1
O      2.168807     1.707714    -0.355893
H      2.073389     2.313978     0.418100
H      1.432893     1.055999    -0.259639
O     -0.026158     0.744940     2.521287
H      0.010483     0.423758     1.592003
H     -0.458684     1.649632     2.480823
O      1.794697    -1.829527    -1.647068
H      1.108505    -1.229676    -1.232109
H      2.212978    -2.403178    -0.980161
O     -1.647590     2.228935    -0.142764
H     -1.627566     2.508274    -1.084550
H     -1.043895     1.472816    -0.082986
O     -1.812943    -1.946993    -0.037439
H     -1.220264    -1.242475    -0.256203
H     -2.477282    -2.005238    -0.795925

units ang
no_reorient
no_com
symmetry c1
}

set {
basis        aug-cc-pVTZ
scf_type     df
}

energy("sapt2+")
