MEMORY 60 GB

molecule dimer {
-1 1
F      0.000000     0.000000     0.000000
--
0 1
O     -0.080310    -1.847083     2.022993
H      0.457360    -2.626850     1.740577
H      0.018614    -1.169433     1.294985
O      2.837448     0.327763    -0.543030
H      1.880268     0.381752    -0.427617
H      3.126366     1.066889    -0.006077
O     -2.870208     0.106987    -0.242889
H     -1.947930     0.074098    -0.240484
H     -3.032889     0.359006     0.686018
O     -0.565191    -2.497966    -1.410818
H     -0.439203    -1.753445    -0.804045
H     -1.324202    -3.032814    -1.079231
O      0.554201     1.968228     1.715688
H     -0.376763     2.281724     1.957626
H      0.367929     1.318127     1.000096

units ang
no_reorient
no_com
symmetry c1
}

set {
basis        aug-cc-pVTZ
scf_type     df
}

energy("sapt2+")
