MEMORY 60 GB

molecule dimer {
-1 1
Cl     0.000000     0.000000     0.000000
--
0 1
O     -1.887462     1.759263    -1.908827
H     -1.684973     2.623036    -1.580712
H     -1.372629     1.128349    -1.354219
O      1.979243     1.684440    -2.294030
H      1.547830     1.066723    -1.667111
H      2.789329     1.271431    -2.500265
O     -1.641072    -1.911453    -2.234674
H     -1.064893    -1.354365    -2.735456
H     -1.296369    -1.998155    -1.293359
O      2.931788    -1.481190    -0.142517
H      2.057624    -1.036918    -0.175552
H      2.844147    -2.259211    -0.698520
O     -1.946670    -2.468133     1.004829
H     -2.564726    -2.415913     0.241229
H     -1.269559    -1.745242     0.820587

units ang
no_reorient
no_com
symmetry c1
}

set {
basis        aug-cc-pVTZ
scf_type     df
}

energy("sapt2+")
