MEMORY 60 GB

molecule dimer {
-1 1
Cl     0.000000     0.000000     0.000000
--
0 1
O     -0.847666     1.123183    -2.635575
H     -0.437574     0.880472    -1.760595
H     -0.764447     2.074687    -2.698382
O     -1.923843    -1.041384     2.309194
H     -0.989393    -0.988290     2.002993
H     -1.922107    -1.234669     3.265432
O     -1.085792     2.891213     1.281354
H     -0.827850     2.048774     0.893722
H     -1.837629     3.227416     0.720403
O      2.086666    -0.280613     2.774800
H      2.485722    -0.200190     3.622985
H      2.716073     0.112459     2.212730
O     -3.218433     0.993576    -0.104983
H     -3.390588     0.720767    -1.017887
H     -2.341262     0.608606     0.113792

units ang
no_reorient
no_com
symmetry c1
}

set {
basis        aug-cc-pVTZ
scf_type     df
}

energy("sapt2+")
