MEMORY 60 GB

molecule dimer {
-1 1
Cl     0.000000     0.000000     0.000000
--
0 1
O      1.179099    -2.702793    -1.094667
H      0.929403    -2.029129    -0.462359
H      1.092980    -3.573515    -0.633220
O      0.081134    -0.715370     3.048829
H      0.119206    -0.799922     2.117339
H      0.247800     0.236344     3.210993
O      3.112573     0.441417     0.245605
H      3.060093     0.433467     1.176247
H      2.153407     0.499648    -0.068952
O      1.136783     3.068748     0.881171
H      0.679395     2.461157     0.268662
H      1.062669     3.915090     0.427493

units ang
no_reorient
no_com
symmetry c1
}

set {
basis        aug-cc-pVTZ
scf_type     df
}

energy("sapt2+")
