MEMORY 60 GB

molecule dimer {
-1 1
Cl     0.000000     0.000000     0.000000
--
0 1
O     -2.814531    -1.586422    -0.841082
H     -2.108229    -0.943243    -0.828051
H     -3.303767    -1.610933     0.003772
O      2.643403    -0.729932     2.153137
H      2.361492     0.103266     2.473781
H      3.569043    -0.852540     2.415988
O      0.360111    -1.589716    -3.056327
H      0.594650    -0.827780    -3.630698
H      0.428642    -1.160485    -2.205151
O     -1.121098     1.837686    -2.537137
H     -0.260127     2.147674    -2.890256
H     -0.883283     1.263543    -1.784354
O      2.631503     1.421712    -1.348374
H      1.781393     1.299793    -0.855764
H      3.087746     0.624659    -1.064809
O     -0.810626     0.796305     2.988929
H     -1.124595     0.478072     2.104225
H     -1.310898     0.268521     3.682673

units ang
no_reorient
no_com
symmetry c1
}

set {
basis        aug-cc-pVTZ
scf_type     df
}

energy("sapt2+")
