MEMORY 60 GB

molecule dimer {
-1 1
Cl     0.000000     0.000000     0.000000
--
0 1
O      2.247823     1.054428     2.091133
H      1.975481     0.561471     1.348335
H      2.892441     0.520458     2.606351
O      0.349162    -2.885324     1.690405
H      0.406239    -3.703972     1.217566
H      0.590132    -2.160564     1.081020
O      1.622947     1.853072    -2.013003
H      2.373746     1.475204    -2.405921
H      1.243024     1.154997    -1.444838

units ang
no_reorient
no_com
symmetry c1
}

set {
basis        aug-cc-pVTZ
scf_type     df
}

energy("sapt2+")
