MEMORY 60 GB

molecule dimer {
-1 1
Cl     0.000000     0.000000     0.000000
--
0 1
O     -1.652811    -1.435957     2.395903
H     -1.528767    -2.339541     2.643559
H     -1.043488    -1.261638     1.661966
O      2.190527    -2.113525     1.676719
H      3.042459    -1.604979     1.864963
H      2.252391    -2.309383     0.719254
O     -1.852063     2.109778     1.864448
H     -1.394061     2.041390     2.691589
H     -1.471182     1.475343     1.236059
O     -2.723100     0.051082    -1.912710
H     -3.515131     0.614816    -1.963275
H     -2.101677     0.471886    -1.368991
O     -0.158646     3.092762    -0.275158
H     -0.735780     3.182659    -1.002850
H     -0.140681     2.112324    -0.117622

units ang
no_reorient
no_com
symmetry c1
}

set {
basis        aug-cc-pVTZ
scf_type     df
}

energy("sapt2+")
