MEMORY 60 GB

molecule dimer {
-1 1
Cl     0.000000     0.000000     0.000000
--
0 1
O      2.577144     1.301097    -1.507566
H      1.636751     1.082512    -1.310522
H      2.493026     1.546902    -2.431710
O     -0.803884    -0.114309     3.230273
H     -1.032596    -0.160666     2.314983
H     -1.231357    -0.797408     3.797174
O      0.843661    -2.286358    -2.084704
H      0.687224    -1.478250    -1.561391
H      0.748808    -1.967004    -2.989697
O     -3.119480    -1.368652    -0.412857
H     -2.259889    -0.968028    -0.211314
H     -2.868990    -2.275884    -0.520071

units ang
no_reorient
no_com
symmetry c1
}

set {
basis        aug-cc-pVTZ
scf_type     df
}

energy("sapt2+")
