MEMORY 60 GB

molecule dimer {
-1 1
Cl     0.000000     0.000000     0.000000
--
0 1
O     -0.939928     3.138189    -0.000936
H     -0.820702     2.238321     0.375766
H     -0.712248     3.077225    -0.943590
O      1.774428     1.345338    -2.573145
H      1.119620     1.302239    -1.824535
H      1.660456     2.173050    -2.996113
O     -2.265274    -2.324267     0.705293
H     -2.834139    -2.738348     0.091603
H     -1.824269    -1.638760     0.205252
O      0.930253    -0.455464     2.995589
H      0.429133     0.276974     3.481595
H      0.852726    -0.389826     2.071742

units ang
no_reorient
no_com
symmetry c1
}

set {
basis        aug-cc-pVTZ
scf_type     df
}

energy("sapt2+")
