MEMORY 60 GB

molecule dimer {
-1 1
Cl     0.000000     0.000000     0.000000
--
0 1
O     -1.550121    -2.503736     1.521143
H     -1.089309    -1.869996     0.932707
H     -1.319323    -2.335642     2.424472
O      0.184732    -2.287568    -2.409063
H      1.112085    -2.569768    -2.573994
H      0.198435    -2.075550    -1.478929
O     -1.452646     2.875747     0.283089
H     -1.016356     3.736085    -0.020414
H     -0.912142     2.095615    -0.030166
O      0.817085     2.063335     2.435791
H      0.226373     1.845365     3.163772
H      0.605925     1.633571     1.595503
O     -2.797363     0.160881    -1.865404
H     -2.079019    -0.043372    -1.312063
H     -2.486557     0.239144    -2.809480

units ang
no_reorient
no_com
symmetry c1
}

set {
basis        aug-cc-pVTZ
scf_type     df
}

energy("sapt2+")
