MEMORY 60 GB

molecule dimer {
-1 1
Cl     0.000000     0.000000     0.000000
--
0 1
O     -1.878402    -1.080531     2.342565
H     -1.026969    -1.166506     1.772713
H     -2.580579    -0.523875     1.890567
O      0.502856     0.086028    -3.057688
H      1.102609    -0.631082    -3.406849
H      0.164913    -0.155801    -2.188960
O     -2.049806    -2.242880    -1.432389
H     -1.691531    -2.297651    -2.291878
H     -1.607052    -1.510032    -1.003034
O      1.381966    -2.850193    -0.519008
H      0.939692    -1.998758    -0.423708
H      2.117352    -2.631893     0.024183

units ang
no_reorient
no_com
symmetry c1
}

set {
basis        aug-cc-pVTZ
scf_type     df
}

energy("sapt2+")
