MEMORY 60 GB

molecule dimer {
-1 1
Cl     0.000000     0.000000     0.000000
--
0 1
O      1.242748     0.373838    -2.862966
H      1.138454     0.351436    -1.908457
H      2.040450     0.897382    -2.964663
O      0.276420     3.153674    -0.747807
H      0.355701     2.306751    -0.429567
H     -0.187972     3.065629    -1.574720
O      0.006494     0.560028     2.997778
H      0.008803     0.499540     2.013278
H      0.769493     0.188003     3.383861
O      3.047364     0.861757     0.211652
H      2.118883     0.732903     0.199202
H      3.204150     1.194867    -0.687368
O      2.269934    -2.438292    -1.028284
H      2.047839    -1.483943    -0.900356
H      1.445497    -2.891753    -0.787702

units ang
no_reorient
no_com
symmetry c1
}

set {
basis        aug-cc-pVTZ
scf_type     df
}

energy("sapt2+")
