MEMORY 60 GB

molecule dimer {
-1 1
Cl     0.000000     0.000000     0.000000
--
0 1
O      1.204895    -0.292806     3.103745
H      0.858812    -0.438415     2.264549
H      0.985701    -1.004115     3.659773
O      0.789525    -2.891032     1.505917
H     -0.080665    -2.757418     1.853570
H      0.819466    -2.343279     0.748618
O     -0.872242     2.463895     1.602122
H     -1.313491     2.263765     2.460438
H     -0.729683     1.568483     1.276229
O      1.378925     2.839395    -1.431688
H      2.181119     3.120693    -1.891219
H      1.599881     2.296982    -0.701732
O     -0.356147    -2.668445    -1.634404
H      0.502565    -3.070606    -1.479224
H     -0.391807    -1.750591    -1.299217
O     -0.586778     0.539437    -3.392799
H     -0.357652     0.715562    -2.504387
H     -1.194776    -0.217509    -3.459535
O     -2.873076    -0.935610     0.706102
H     -2.054198    -0.673415     0.344225
H     -3.477967    -0.300884     1.099128

units ang
no_reorient
no_com
symmetry c1
}

set {
basis        aug-cc-pVTZ
scf_type     df
}

energy("sapt2+")
