MEMORY 60 GB

molecule dimer {
-1 1
Cl     0.000000     0.000000     0.000000
--
0 1
O     -2.053684     2.304311     0.217814
H     -1.456383     2.956946     0.610925
H     -1.443301     1.666290    -0.182013
O      2.189604     1.887725    -1.286451
H      1.490313     1.304328    -0.911948
H      2.485988     1.522653    -2.115611
O      1.794090    -2.315229    -1.369329
H      1.050639    -2.681183    -1.877896
H      1.473504    -1.592214    -0.862287
O     -1.373675     0.424170    -2.840394
H     -0.768222     0.275953    -3.546434
H     -0.987035     0.245546    -1.972930

units ang
no_reorient
no_com
symmetry c1
}

set {
basis        aug-cc-pVTZ
scf_type     df
}

energy("sapt2+")
