MEMORY 60 GB

molecule dimer {
-1 1
Br     0.000000     0.000000     0.000000
--
0 1
O      1.331716     2.722509     0.940794
H      0.932553     1.903811     0.578732
H      1.260918     3.403207     0.208378
O     -1.448453     1.321538     2.668376
H     -1.342868     0.760752     1.897082
H     -0.736737     1.048426     3.235516
O     -0.072527    -0.400216    -3.431422
H      0.021822    -0.469284    -2.499082
H      0.767355    -0.131810    -3.808652
O      3.075394     0.425946     1.413502
H      2.911921     1.297669     1.072376
H      2.314786    -0.184850     1.323914
O      2.532006     0.388678    -2.263516
H      2.071157     0.512868    -1.472168
H      2.383790     1.130998    -2.871000

units ang
no_reorient
no_com
symmetry c1
}

set {
basis        aug-cc-pVTZ
scf_type     df
}

energy("sapt2+")
