MEMORY 60 GB

molecule dimer {
-1 1
Br     0.000000     0.000000     0.000000
--
0 1
O     -0.398772     2.771226    -1.737852
H     -0.167454     1.894529    -1.346899
H     -0.309653     3.428697    -1.020919
O     -3.339806     0.323665     0.990808
H     -2.438001     0.132101     0.746811
H     -3.184475     1.038662     1.636400
O      1.126320     0.799653     2.994782
H      0.909928     0.462489     2.111776
H      1.413076     1.689178     2.896339
O      2.367838    -2.599542    -0.056597
H      3.092019    -3.163533    -0.291148
H      2.688477    -1.665096    -0.038083
O      2.789469     1.923029    -0.987849
H      2.065767     1.315362    -0.700213
H      3.541717     1.356749    -1.006051
O     -0.911427     2.834175     1.397650
H     -0.109751     3.206318     1.722669
H     -0.618486     2.164510     0.761354

units ang
no_reorient
no_com
symmetry c1
}

set {
basis        aug-cc-pVTZ
scf_type     df
}

energy("sapt2+")
