MEMORY 60 GB

molecule dimer {
-1 1
Br     0.000000     0.000000     0.000000
--
0 1
O     -1.002720     1.993124     2.321313
H     -0.351528     2.133751     3.042936
H     -0.543410     1.349055     1.802299
O      0.307659    -1.113457     3.179549
H      0.146511    -1.014538     2.251034
H      0.916176    -0.384364     3.369983
O      0.134938     2.890842    -2.146499
H      0.910478     2.837152    -2.697170
H      0.278111     2.304641    -1.426932
O      2.679835     2.140169     0.858685
H      2.130372     1.676874     0.222200
H      2.422386     3.080482     0.748396
O      2.910957    -1.444106     1.064877
H      2.876759    -2.399112     0.943677
H      1.992337    -1.112588     0.882055
O     -2.729613     2.306210     0.073831
H     -2.217593     2.158831     0.876539
H     -2.952467     1.398441    -0.249696

units ang
no_reorient
no_com
symmetry c1
}

set {
basis        aug-cc-pVTZ
scf_type     df
}

energy("sapt2+")
