MEMORY 60 GB

molecule dimer {
-1 1
Br     0.000000     0.000000     0.000000
--
0 1
O     -0.046525    -2.172810     2.388371
H      0.192961    -2.058591     3.276470
H      0.227483    -1.447125     1.853069
O     -3.001582    -1.688367    -0.659378
H     -3.051597    -2.464025    -0.091192
H     -2.107316    -1.279153    -0.589440
O      1.202238     1.886794     2.696986
H      0.703236     1.368206     2.070104
H      0.555514     2.123391     3.374762
O      0.642071     3.088985    -0.348066
H      0.818347     3.560490     0.475379
H      0.241245     2.278483    -0.088040
O     -1.743083     0.570150     2.511522
H     -1.402890     0.297354     1.627315
H     -2.233465    -0.240456     2.843953

units ang
no_reorient
no_com
symmetry c1
}

set {
basis        aug-cc-pVTZ
scf_type     df
}

energy("sapt2+")
