MEMORY 60 GB

molecule dimer {
-1 1
Br     0.000000     0.000000     0.000000
--
0 1
O      0.936162     3.028793    -0.863611
H      0.135253     3.528226    -1.165330
H      0.572521     2.216892    -0.482163
O     -1.364496     1.694909     2.400741
H     -0.940522     1.130278     1.692609
H     -1.147774     2.625449     2.143951
O     -2.003382    -2.394680     1.418725
H     -1.477915    -3.075593     1.809731
H     -1.317858    -1.699563     1.204630
O      3.353864     0.790785     0.363253
H      3.773818     0.759128    -0.518565
H      2.429244     0.812169     0.202249

units ang
no_reorient
no_com
symmetry c1
}

set {
basis        aug-cc-pVTZ
scf_type     df
}

energy("sapt2+")
