MEMORY 60 GB

molecule dimer {
-1 1
Br     0.000000     0.000000     0.000000
--
0 1
O     -0.287333     2.284328    -2.676686
H     -1.189125     2.076961    -2.470743
H     -0.308977     3.169615    -2.898919
O     -1.718717     2.800508     0.791810
H     -2.180920     2.574620     1.591008
H     -0.948950     2.241505     0.681251
O     -2.250627    -0.708753     2.444791
H     -1.797196    -0.353230     1.633466
H     -2.625319    -0.031601     3.013515
O     -2.337161    -0.758344    -2.197429
H     -1.490115    -0.559072    -1.771491
H     -2.455913     0.011097    -2.808030
O      1.696005     2.609774    -0.856759
H      0.957190     2.071096    -1.210993
H      1.833312     3.412589    -1.305303
O      1.181919     0.124288    -3.224854
H      1.566148    -0.220066    -2.442840
H      0.740878     0.911603    -2.939958
O     -0.730787    -3.301075    -0.609983
H     -0.652545    -2.326531    -0.429398
H     -0.243929    -3.672456     0.120854

units ang
no_reorient
no_com
symmetry c1
}

set {
basis        aug-cc-pVTZ
scf_type     df
}

energy("sapt2+")
