MEMORY 60 GB

molecule dimer {
-1 1
Br     0.000000     0.000000     0.000000
--
0 1
O     -1.240886    -3.182298    -0.315482
H     -1.336837    -3.164388     0.618207
H     -0.845413    -2.278598    -0.523277
O     -0.972663     2.731075    -1.695096
H     -0.675308     1.871896    -2.024684
H     -1.748117     2.595633    -1.153655
O      0.238220    -1.724367     3.124076
H      0.205817    -1.206054     2.262866
H      1.175013    -1.881560     3.293870
O     -2.901260    -1.114093     1.330561
H     -2.382813    -1.711812     1.788198
H     -2.332582    -0.944358     0.558417
O     -2.124030     2.379906     1.059776
H     -1.431709     1.833183     0.702258
H     -2.285508     2.097630     2.002058
O      2.270799    -0.304696    -2.751069
H      1.469455     0.170842    -2.962831
H      2.050684    -0.944818    -2.039366

units ang
no_reorient
no_com
symmetry c1
}

set {
basis        aug-cc-pVTZ
scf_type     df
}

energy("sapt2+")
