MEMORY 60 GB

molecule dimer {
-1 1
Br     0.000000     0.000000     0.000000
--
0 1
O     -2.035183     0.505931    -2.714884
H     -1.976795     1.463081    -2.600066
H     -1.297730     0.131163    -2.176587
O      3.263034     0.338969    -1.106453
H      2.366786     0.373527    -0.759632
H      3.697550     0.015590    -0.296441
O      2.178094    -2.034010     1.585940
H      1.627600    -1.749935     0.822231
H      1.500081    -2.085197     2.285919
O      1.183323    -2.765482    -1.699569
H      0.620307    -3.433026    -1.331715
H      0.809411    -1.929569    -1.365631

units ang
no_reorient
no_com
symmetry c1
}

set {
basis        aug-cc-pVTZ
scf_type     df
}

energy("sapt2+")
