MEMORY 60 GB

molecule dimer {
-1 1
Br     0.000000     0.000000     0.000000
--
0 1
O      1.945893     0.262012    -2.944461
H      2.825168     0.000048    -2.764125
H      1.492154     0.128599    -2.083365
O      1.918090    -2.759463     0.110152
H      2.249433    -3.068366     0.986392
H      1.495298    -1.822514     0.139316
O     -0.118445     3.259334     0.447045
H      0.218183     2.360201     0.174258
H     -0.788624     3.412072    -0.216775
O     -1.467014     0.339355    -3.263026
H     -2.372942     0.465663    -2.906747
H     -0.878477     0.065588    -2.558990
O     -3.316037    -0.369815     0.274592
H     -2.663704    -1.042109     0.576311
H     -3.997139    -0.433657     0.965591
O      3.111664     0.648515     1.096188
H      2.163031     0.405322     0.957248
H      3.130519     1.210000     1.863659
O     -1.031067    -3.136478    -0.817819
H     -0.145501    -2.816616    -0.879827
H     -1.232430    -3.165983     0.108864
O      0.920696    -0.819222     3.154004
H      1.852436    -0.484491     3.317884
H      0.572531    -0.433290     2.303889

units ang
no_reorient
no_com
symmetry c1
}

set {
basis        aug-cc-pVTZ
scf_type     df
}

energy("sapt2+")
