MEMORY 60 GB

molecule dimer {
-1 1
Br     0.000000     0.000000     0.000000
--
0 1
O      2.794095    -1.387479     0.567346
H      1.955440    -0.895211     0.196524
H      3.481853    -0.702595     0.669128
O      2.335776     1.864406     0.831723
H      1.699945     1.187957     0.609791
H      1.817179     2.598588     1.156693
O     -0.357779     0.030054     3.245802
H     -0.127128     0.352128     2.389975
H     -0.011989     0.692795     3.899278

units ang
no_reorient
no_com
symmetry c1
}

set {
basis        aug-cc-pVTZ
scf_type     df
}

energy("sapt2+")
