MEMORY 60 GB

molecule dimer {
-1 1
Br     0.000000     0.000000     0.000000
--
0 1
O      2.124652     1.964937     2.121179
H      2.172793     1.368654     2.868479
H      1.679122     1.413724     1.418976
O      0.104991     3.249169    -0.182748
H     -0.717800     3.852559    -0.190945
H     -0.198510     2.348694    -0.321779
O      2.981573    -1.290363     1.136769
H      2.140404    -0.909703     0.930704
H      3.672272    -0.882775     0.618927
O     -2.479840     1.517813     1.775784
H     -2.172611     0.572932     1.816703
H     -2.115363     1.956989     2.554860

units ang
no_reorient
no_com
symmetry c1
}

set {
basis        aug-cc-pVTZ
scf_type     df
}

energy("sapt2+")
