MEMORY 60 GB

molecule dimer {
-1 1
Br     0.000000     0.000000     0.000000
--
0 1
O     -0.088017     2.381552    -2.261185
H      0.085852     1.513908    -1.878612
H     -0.607832     2.226833    -3.041716
O      3.292755    -0.049072    -1.394388
H      3.313770     0.293662    -0.438862
H      3.329681    -1.029261    -1.327193
O     -1.887489    -1.542891     2.210978
H     -1.391426    -1.135169     1.456088
H     -2.055481    -2.392826     1.818252
O     -1.984809     2.487522     0.009885
H     -1.495227     1.853035    -0.535053
H     -2.258934     2.039837     0.854695
O     -2.275006    -1.329324    -2.141041
H     -1.778768    -1.181051    -2.948824
H     -1.760804    -0.928569    -1.475808

units ang
no_reorient
no_com
symmetry c1
}

set {
basis        aug-cc-pVTZ
scf_type     df
}

energy("sapt2+")
