MEMORY 60 GB

molecule dimer {
-1 1
Br     0.000000     0.000000     0.000000
--
0 1
O     -1.098908    -3.071508    -0.487534
H     -0.293885    -3.421066    -1.019080
H     -0.905828    -2.104128    -0.516759
O      1.164874    -2.706180     2.071644
H      1.253804    -2.143184     2.914441
H      0.471840    -2.302890     1.514895
O      0.575450    -0.529067    -2.994827
H      0.141283    -0.085171    -2.247597
H      1.099265    -1.253083    -2.580112
O     -0.792664     1.020897     3.205548
H      0.118432     0.983099     2.910144
H     -0.793424     1.323019     4.123454
O      3.168574    -1.492021    -0.608818
H      3.582456    -1.338518     0.262661
H      2.354410    -0.982806    -0.504585

units ang
no_reorient
no_com
symmetry c1
}

set {
basis        aug-cc-pVTZ
scf_type     df
}

energy("sapt2+")
