MEMORY 60 GB

molecule dimer {
-1 1
Br     0.000000     0.000000     0.000000
--
0 1
O      1.746665    -1.522862     2.344313
H      1.302761    -1.244800     1.535866
H      1.477658    -0.946620     3.043779
O     -0.155414     2.367422     2.373797
H      0.139736     1.933532     1.509779
H      0.044268     3.347623     2.380588
O     -0.953764    -2.860809     1.638351
H     -0.679006    -1.912495     1.469971
H     -1.756172    -2.763420     2.109332
O      2.595437     2.106666    -1.112278
H      3.150772     2.235622    -0.338113
H      1.872541     1.501902    -0.905209
O     -3.071740    -0.470450    -1.805587
H     -2.939395    -1.394781    -2.194465
H     -2.208285    -0.394983    -1.343831

units ang
no_reorient
no_com
symmetry c1
}

set {
basis        aug-cc-pVTZ
scf_type     df
}

energy("sapt2+")
