MEMORY 60 GB

molecule dimer {
-1 1
Br     0.000000     0.000000     0.000000
--
0 1
O     -3.089947     1.034619     0.842009
H     -3.734811     0.391946     0.529675
H     -2.297161     0.715238     0.405981
O     -2.233158    -2.307199     1.583647
H     -2.798612    -2.457186     0.820221
H     -1.458816    -1.809725     1.296922
O     -0.611219     2.868519     1.544803
H     -0.492191     2.014807     1.191864
H      0.279621     2.996725     1.995565
O     -1.434323     2.291860    -1.824576
H     -0.902332     3.109212    -1.825781
H     -0.845869     1.602856    -1.446966

units ang
no_reorient
no_com
symmetry c1
}

set {
basis        aug-cc-pVTZ
scf_type     df
}

energy("sapt2+")
