MEMORY 60 GB

molecule dimer {
-1 1
Br     0.000000     0.000000     0.000000
--
0 1
O      1.214755     2.032402     2.352565
H      0.843379     1.290858     1.788319
H      2.176535     2.115299     2.233161
O     -1.899098     2.893105     0.263373
H     -2.377616     3.120026    -0.530168
H     -1.651951     1.952131     0.230723
O      1.184394     2.722133    -1.786102
H      0.888960     1.954533    -1.303810
H      0.985690     3.441294    -1.194986
O     -3.316529    -1.099441    -0.081057
H     -2.506499    -0.600404    -0.183707
H     -3.485828    -1.108557     0.900656

units ang
no_reorient
no_com
symmetry c1
}

set {
basis        aug-cc-pVTZ
scf_type     df
}

energy("sapt2+")
