$molecule
1 1
--
1 1
Li     0.000000     0.000000     0.000000
--
0 1
O      1.670181     0.000000     0.000000
H      2.255185     0.763729     0.000000
H      2.255185    -0.763729     0.000000
O     -1.670181     0.000000     0.000000
H     -2.255184    -0.763729     0.000000
H     -2.255184     0.763729     0.000000
$end

$rem
JOBTYPE          eda
EDA2             1
METHOD           wB97M-V
BASIS            def2-TZVPPD
SYMMETRY         false
MEM_TOTAL        50000
MEM_STATIC       10000
THRESH           14
SCF_CONVERGENCE  8
XC_GRID          000099000590
NL_GRID          1
EDA_CLS_DISP     true
FD_MAT_VEC_PROD  FALSE
$end
