$molecule
1 1
--
1 1
K      0.000000     0.000000     0.000000
--
0 1
O      2.272676     0.000000     0.000000
H      2.865846     0.755912     0.000000
H      2.865846    -0.755912     0.000000
O     -2.272676     0.000000     0.000000
H     -2.865846    -0.755912     0.000000
H     -2.865846     0.755912     0.000000
$end

$rem
JOBTYPE          eda
EDA2             1
METHOD           wB97M-V
BASIS            def2-TZVPPD
SYMMETRY         false
MEM_TOTAL        50000
MEM_STATIC       10000
THRESH           14
SCF_CONVERGENCE  8
XC_GRID          000099000590
NL_GRID          1
EDA_CLS_DISP     true
FD_MAT_VEC_PROD  FALSE
$end
