$molecule
1 1
--
1 1
Li     0.000000     0.000000     0.000000
--
0 1
O      1.888392    -0.000000     0.000000
H      2.474378     0.761371     0.000000
H      2.474378    -0.761371     0.000000
O     -0.944196     1.635395     0.000000
H     -1.896556     1.762189     0.000000
H     -0.577823     2.523560     0.000000
O     -0.944196    -1.635395     0.000000
H     -0.577823    -2.523560     0.000000
H     -1.896556    -1.762189     0.000000
$end

$rem
JOBTYPE          eda
EDA2             1
METHOD           wB97M-V
BASIS            def2-TZVPPD
SYMMETRY         false
MEM_TOTAL        50000
MEM_STATIC       10000
THRESH           14
SCF_CONVERGENCE  8
XC_GRID          000099000590
NL_GRID          1
EDA_CLS_DISP     true
FD_MAT_VEC_PROD  FALSE
$end
