$molecule
1 1
--
1 1
Na     0.000000     0.000000     0.000000
--
0 1
O      1.870172    -0.000000    -1.173415
H      2.316655     0.760558    -1.552451
H      2.316655    -0.760558    -1.552451
O     -1.871411    -0.000000    -1.171436
H     -2.318235     0.760557    -1.550073
H     -2.318235    -0.760557    -1.550073
O      0.000572     1.870196     1.173356
H     -0.759836     2.316556     1.552839
H      0.761280     2.316751     1.552004
O      0.000572    -1.870196     1.173356
H     -0.759836    -2.316556     1.552839
H      0.761280    -2.316751     1.552004
$end

$rem
JOBTYPE          eda
EDA2             1
METHOD           wB97M-V
BASIS            def2-TZVPPD
SYMMETRY         false
MEM_TOTAL        50000
MEM_STATIC       10000
THRESH           14
SCF_CONVERGENCE  8
XC_GRID          000099000590
NL_GRID          1
EDA_CLS_DISP     true
FD_MAT_VEC_PROD  FALSE
$end
