$molecule
1 1
--
1 1
Na     0.000000     0.000000     0.000000
--
0 1
O      2.127279     0.958722    -0.303191
H      1.886144     1.856127    -0.045765
H      3.083807     0.914107    -0.236147
O     -0.290523     2.307019     0.013940
H     -0.650774     3.093413     0.429897
H     -0.441263     2.417497    -0.932218
O     -1.241008    -1.890537     0.130238
H     -1.265291    -2.158266     1.052897
H     -1.758627    -2.547849    -0.339374
O      0.035120    -0.485188     2.275872
H     -0.468697    -0.019297     2.947733
H      0.810529    -0.811250     2.739680
O      0.109375     0.709487    -2.223872
H     -0.208283     0.571183    -3.118810
H      1.061421     0.839555    -2.299444
$end

$rem
JOBTYPE          eda
EDA2             1
METHOD           wB97M-V
BASIS            def2-TZVPPD
SYMMETRY         false
MEM_TOTAL        50000
MEM_STATIC       10000
THRESH           14
SCF_CONVERGENCE  8
XC_GRID          000099000590
NL_GRID          1
EDA_CLS_DISP     true
FD_MAT_VEC_PROD  FALSE
$end
