$molecule
1 1
--
1 1
K      0.000000     0.000000     0.000000
--
0 1
O      2.554119    -0.000000     0.000000
H      3.147554     0.755364     0.000000
H      3.147554    -0.755364     0.000000
O     -1.277059     2.211932     0.000000
H     -2.227941     2.348180     0.000000
H     -0.919613     3.103544     0.000000
O     -1.277059    -2.211932     0.000000
H     -0.919613    -3.103544     0.000000
H     -2.227941    -2.348180     0.000000
$end

$rem
JOBTYPE          eda
EDA2             1
METHOD           wB97M-V
BASIS            def2-TZVPPD
SYMMETRY         false
MEM_TOTAL        50000
MEM_STATIC       10000
THRESH           14
SCF_CONVERGENCE  8
XC_GRID          000099000590
NL_GRID          1
EDA_CLS_DISP     true
FD_MAT_VEC_PROD  FALSE
$end
