$molecule
1 1
--
1 1
K      0.000000     0.000000     0.000000
--
0 1
O      2.086884    -0.000000    -1.490509
H      2.552025     0.755701    -1.858373
H      2.552025    -0.755701    -1.858373
O     -2.089171    -0.000000    -1.487307
H     -2.554868     0.755701    -1.854466
H     -2.554868    -0.755701    -1.854466
O      0.000353     2.090413     1.485755
H     -0.755264     2.556376     1.852755
H      0.756127     2.556380     1.852429
O      0.000353    -2.090413     1.485755
H     -0.755264    -2.556376     1.852755
H      0.756127    -2.556380     1.852429
$end

$rem
JOBTYPE          eda
EDA2             1
METHOD           wB97M-V
BASIS            def2-TZVPPD
SYMMETRY         false
MEM_TOTAL        50000
MEM_STATIC       10000
THRESH           14
SCF_CONVERGENCE  8
XC_GRID          000099000590
NL_GRID          1
EDA_CLS_DISP     true
FD_MAT_VEC_PROD  FALSE
$end
