$molecule
-1 1
--
-1 1
F      0.000000     0.000000     0.000000
--
0 1
O      2.567370    -0.022237     0.000450
H      1.570237    -0.051088     0.000135
H      2.745287     0.918427     0.000641
O     -1.266676     2.233096     0.000390
H     -0.742110     1.384616     0.000221
H     -2.169908     1.915777     0.000517
O     -1.297827    -2.215389     0.000764
H     -0.826560    -1.336207    -0.000029
H     -0.570574    -2.837902     0.010786
$end

$rem
JOBTYPE          eda
EDA2             1
METHOD           wB97M-V
BASIS            def2-TZVPPD
SYMMETRY         false
MEM_TOTAL        50000
MEM_STATIC       10000
THRESH           14
SCF_CONVERGENCE  8
XC_GRID          000099000590
NL_GRID          1
EDA_CLS_DISP     true
FD_MAT_VEC_PROD  FALSE
$end
