$molecule
-1 1
--
-1 1
F      0.000000     0.000000     0.000000
--
0 1
O      2.615040     0.830855    -0.306548
H      1.779183     0.354941    -0.172646
H      2.290422     1.727088    -0.437083
O      0.173453     2.717899    -0.376765
H      0.091851     1.810760    -0.035543
H     -0.211367     2.609582    -1.253149
O     -2.664729    -0.415500    -0.147684
H     -1.741393    -0.110673    -0.063872
H     -2.520127    -1.364697    -0.235724
O     -0.665239    -2.671544     0.084735
H     -0.273898    -1.812643    -0.151117
H     -0.743278    -2.563566     1.039506
O     -0.855421    -0.807340     2.436516
H     -0.394648    -0.437707     1.658496
H     -1.773466    -0.627104     2.215378
O     -0.924112     0.790296    -2.457210
H     -0.429820     0.436903    -1.696363
H     -1.826383     0.561602    -2.213630
$end

$rem
JOBTYPE          eda
EDA2             1
METHOD           wB97M-V
BASIS            def2-TZVPPD
SYMMETRY         false
MEM_TOTAL        50000
MEM_STATIC       10000
THRESH           14
SCF_CONVERGENCE  8
XC_GRID          000099000590
NL_GRID          1
EDA_CLS_DISP     true
FD_MAT_VEC_PROD  FALSE
$end
