$molecule
-1 1
--
-1 1
Cl     0.000000     0.000000     0.000000
--
0 1
O      1.193847     3.059880    -0.191540
H      1.050622     2.135766     0.059877
H      0.488373     3.190725    -0.833172
O     -1.255328     2.203026    -1.849559
H     -0.728175     1.510309    -1.405975
H     -1.946042     2.352910    -1.192080
O     -2.899295     1.180833     0.498000
H     -1.947579     0.986003     0.566824
H     -3.147755     0.570971    -0.212177
O     -1.994106    -1.093016     2.374025
H     -1.243096    -0.952935     1.778982
H     -2.613084    -0.428489     2.054550
O     -2.567289    -0.530699    -1.853207
H     -1.770490    -0.696869    -1.319972
H     -2.317304     0.282618    -2.307820
$end

$rem
JOBTYPE          eda
EDA2             1
METHOD           wB97M-V
BASIS            def2-TZVPPD
SYMMETRY         false
MEM_TOTAL        50000
MEM_STATIC       10000
THRESH           14
SCF_CONVERGENCE  8
XC_GRID          000099000590
NL_GRID          1
EDA_CLS_DISP     true
FD_MAT_VEC_PROD  FALSE
$end
