$molecule
-1 1
--
-1 1
Br     0.000000     0.000000     0.000000
--
0 1
O      3.259584    -0.042170     0.000000
H      2.285646    -0.124447     0.000000
H      3.375999     0.909134    -0.000000
O     -1.593272     2.843968    -0.000000
H     -1.035049     2.041651     0.000000
H     -2.475333     2.469134    -0.000000
O     -1.666313    -2.801798    -0.000000
H     -1.250597    -1.917204     0.000000
H     -0.900666    -3.378268    -0.000000
$end

$rem
JOBTYPE          eda
EDA2             1
METHOD           wB97M-V
BASIS            def2-TZVPPD
SYMMETRY         false
MEM_TOTAL        50000
MEM_STATIC       10000
THRESH           14
SCF_CONVERGENCE  8
XC_GRID          000099000590
NL_GRID          1
EDA_CLS_DISP     true
FD_MAT_VEC_PROD  FALSE
$end
