$molecule
-1 1
--
-1 1
Br     0.000000     0.000000     0.000000
--
0 1
O      0.553611     2.534250    -2.078110
H      0.629338     1.653964    -1.672755
H      0.306285     3.057750    -1.302436
O     -2.264363     1.718106    -1.669804
H     -1.819846     1.014407    -1.163465
H     -1.513796     2.067261    -2.169836
O     -0.808349     3.157421     0.457372
H     -0.454952     2.261911     0.607349
H     -1.567751     2.947410    -0.103931
O     -1.611921    -1.947691     2.093967
H     -1.065322    -1.430972     1.474055
H     -2.391561    -1.397160     2.181608
$end

$rem
JOBTYPE          eda
EDA2             1
METHOD           wB97M-V
BASIS            def2-TZVPPD
SYMMETRY         false
MEM_TOTAL        50000
MEM_STATIC       10000
THRESH           14
SCF_CONVERGENCE  8
XC_GRID          000099000590
NL_GRID          1
EDA_CLS_DISP     true
FD_MAT_VEC_PROD  FALSE
$end
