$molecule
1 1
--
0 1
O      0.000000     0.000000     0.000000
H     -0.111723     0.952699     0.064504
H     -0.770386    -0.364626     0.444783
--
1 1
Na     2.158940     0.000000     0.000000
$end

$rem
JOBTYPE          eda
EDA2             1
METHOD           wB97M-V
BASIS            def2-TZVPPD
SYMMETRY         false
MEM_TOTAL        50000
MEM_STATIC       10000
THRESH           14
SCF_CONVERGENCE  8
XC_GRID          000099000590
NL_GRID          1
EDA_CLS_DISP     true
FD_MAT_VEC_PROD  FALSE
$end
