$molecule
1 1
--
1 1
Li     0.000000     0.000000     0.000000
--
0 1
O      0.093466     1.102529     1.398467
H     -0.286264     0.781074     2.237075
H      1.062890     1.237794     1.569113
O     -0.817145    -1.577921     0.295809
H     -0.126605    -2.261842     0.420003
H     -1.199869    -1.626482    -0.594808
$end

$rem
JOBTYPE          eda
EDA2             1
METHOD           wB97M-V
BASIS            def2-TZVPPD
SYMMETRY         false
MEM_TOTAL        50000
MEM_STATIC       10000
THRESH           14
SCF_CONVERGENCE  8
XC_GRID          000099000590
NL_GRID          1
EDA_CLS_DISP     true
FD_MAT_VEC_PROD  FALSE
$end
