$molecule
1 1
--
1 1
Li     0.000000     0.000000     0.000000
--
0 1
O      1.296978    -1.022674    -0.940549
H      2.066028    -0.402028    -0.993363
H      1.641941    -1.811888    -0.528858
O     -0.396746     1.474444    -1.474878
H     -1.280057     1.910080    -1.499885
H     -0.029846     1.581237    -2.348859
O     -1.483670    -0.955584    -0.302297
H     -2.040982    -0.609953    -1.043081
H     -1.234753    -1.872425    -0.358799
O      0.250460     0.847898     1.880600
H     -0.509855     0.604026     2.413481
H      0.341405     1.822100     1.938332
$end

$rem
JOBTYPE          eda
EDA2             1
METHOD           wB97M-V
BASIS            def2-TZVPPD
SYMMETRY         false
MEM_TOTAL        50000
MEM_STATIC       10000
THRESH           14
SCF_CONVERGENCE  8
XC_GRID          000099000590
NL_GRID          1
EDA_CLS_DISP     true
FD_MAT_VEC_PROD  FALSE
$end
