$molecule
1 1
--
1 1
Li     0.000000     0.000000     0.000000
--
0 1
O     -0.213290    -1.230877    -1.435922
H      0.319614    -1.433868    -2.244771
H     -1.116811    -1.240557    -1.761755
O      1.078055    -0.691540     1.605291
H      1.583124    -1.467147     1.345496
H      0.428738    -1.104788     2.246733
O      1.200353     1.386398    -0.738119
H      0.867414     1.714195    -1.599060
H      2.118436     1.242699    -0.916516
O     -1.635855     0.447985     0.979762
H     -1.749951     0.565313     1.919399
H     -2.276601     0.947984     0.463108
$end

$rem
JOBTYPE          eda
EDA2             1
METHOD           wB97M-V
BASIS            def2-TZVPPD
SYMMETRY         false
MEM_TOTAL        50000
MEM_STATIC       10000
THRESH           14
SCF_CONVERGENCE  8
XC_GRID          000099000590
NL_GRID          1
EDA_CLS_DISP     true
FD_MAT_VEC_PROD  FALSE
$end
