$molecule
1 1
--
1 1
Li     0.000000     0.000000     0.000000
--
0 1
O     -1.715018     0.035203     0.485956
H     -1.936750    -0.119626     1.364263
H     -2.298787     0.693310     0.156393
O      1.091749    -0.253037     1.609196
H      1.070284    -1.120083     2.020331
H      0.767319     0.430326     2.249368
O      0.246191     2.036729    -0.098373
H      0.467254     2.250333     0.806838
H      0.917922     2.460712    -0.640110
O      0.268445    -0.553088    -1.903107
H     -0.423728    -0.525899    -2.557714
H      0.710424    -1.402795    -2.022738
$end

$rem
JOBTYPE          eda
EDA2             1
METHOD           wB97M-V
BASIS            def2-TZVPPD
SYMMETRY         false
MEM_TOTAL        50000
MEM_STATIC       10000
THRESH           14
SCF_CONVERGENCE  8
XC_GRID          000099000590
NL_GRID          1
EDA_CLS_DISP     true
FD_MAT_VEC_PROD  FALSE
$end
