$molecule
1 1
--
1 1
Li     0.000000     0.000000     0.000000
--
0 1
O      1.019083     0.534807    -1.726191
H      0.625080     0.290251    -2.608177
H      0.830858     1.498588    -1.618666
O      0.965199     1.220004     1.116919
H      0.489944     1.995527     1.292918
H      1.415083     0.944086     1.921579
O     -1.437462     1.300273    -0.217367
H     -1.717662     1.772714     0.555732
H     -1.328741     1.931896    -0.948455
O     -0.568332    -1.731301    -0.760465
H     -0.202881    -1.985016    -1.680965
H     -0.497598    -2.566820    -0.278428
$end

$rem
JOBTYPE          eda
EDA2             1
METHOD           wB97M-V
BASIS            def2-TZVPPD
SYMMETRY         false
MEM_TOTAL        50000
MEM_STATIC       10000
THRESH           14
SCF_CONVERGENCE  8
XC_GRID          000099000590
NL_GRID          1
EDA_CLS_DISP     true
FD_MAT_VEC_PROD  FALSE
$end
