$molecule
1 1
--
1 1
Li     0.000000     0.000000     0.000000
--
0 1
O     -0.984691    -0.969052     1.267687
H     -1.298677    -0.512598     2.085258
H     -1.774992    -1.550102     1.066930
O      0.635689     1.405102     0.678468
H      1.386421     1.451552     1.210237
H     -0.135008     1.841375     1.074997
O      1.465994    -1.501291    -0.557694
H      1.460995    -2.365831    -0.942800
H      1.959287    -0.902242    -1.128803
O     -0.443803     0.020399    -1.936730
H     -0.816450    -0.798888    -2.251870
H     -1.133766     0.682308    -2.119070
$end

$rem
JOBTYPE          eda
EDA2             1
METHOD           wB97M-V
BASIS            def2-TZVPPD
SYMMETRY         false
MEM_TOTAL        50000
MEM_STATIC       10000
THRESH           14
SCF_CONVERGENCE  8
XC_GRID          000099000590
NL_GRID          1
EDA_CLS_DISP     true
FD_MAT_VEC_PROD  FALSE
$end
