$molecule
1 1
--
1 1
Li     0.000000     0.000000     0.000000
--
0 1
O     -0.409388    -1.172788    -1.653677
H     -0.592719    -0.863963    -2.571183
H     -1.165044    -1.724467    -1.443699
O      0.581959    -1.470160     1.232372
H      0.948783    -1.556174     2.097776
H      0.995278    -2.238232     0.765158
O     -1.695527     0.711563    -0.176134
H     -2.191824     1.057173    -0.930725
H     -2.102533     1.149660     0.537971
O      1.307265     1.309986     0.356041
H      1.967290     1.087218     1.057477
H      1.846449     1.401655    -0.489010
$end

$rem
JOBTYPE          eda
EDA2             1
METHOD           wB97M-V
BASIS            def2-TZVPPD
SYMMETRY         false
MEM_TOTAL        50000
MEM_STATIC       10000
THRESH           14
SCF_CONVERGENCE  8
XC_GRID          000099000590
NL_GRID          1
EDA_CLS_DISP     true
FD_MAT_VEC_PROD  FALSE
$end
