$molecule
1 1
--
1 1
Li     0.000000     0.000000     0.000000
--
0 1
O     -1.162740     1.014321     1.159155
H     -0.442200     0.986359     1.801023
H     -1.860620     0.437939     1.470678
O      1.767946     0.216161     0.641309
H      2.204606    -0.360946     0.000281
H      2.328164     0.028607     1.374471
O     -0.688386    -1.786161     0.152623
H     -1.542320    -1.770103    -0.317065
H     -0.023824    -2.188879    -0.406850
O      0.091354     1.071377    -1.593210
H     -0.332237     0.917174    -2.464800
H      0.896186     1.508063    -1.838482
$end

$rem
JOBTYPE          eda
EDA2             1
METHOD           wB97M-V
BASIS            def2-TZVPPD
SYMMETRY         false
MEM_TOTAL        50000
MEM_STATIC       10000
THRESH           14
SCF_CONVERGENCE  8
XC_GRID          000099000590
NL_GRID          1
EDA_CLS_DISP     true
FD_MAT_VEC_PROD  FALSE
$end
