$molecule
1 1
--
1 1
Li     0.000000     0.000000     0.000000
--
0 1
O      1.624602    -0.599215     0.407332
H      1.779901    -1.053384     1.285034
H      1.968336    -1.288296    -0.194457
O      0.015130     0.160288    -2.112000
H     -0.400199    -0.626732    -2.426521
H     -0.526316     0.911430    -2.400797
O     -0.104266     2.062866     0.061524
H      0.705352     2.549678    -0.205842
H     -0.844368     2.633268     0.033918
O     -1.648907    -0.748215     0.007261
H     -1.595409    -1.659784    -0.142717
H     -2.314959    -0.624781     0.666327
$end

$rem
JOBTYPE          eda
EDA2             1
METHOD           wB97M-V
BASIS            def2-TZVPPD
SYMMETRY         false
MEM_TOTAL        50000
MEM_STATIC       10000
THRESH           14
SCF_CONVERGENCE  8
XC_GRID          000099000590
NL_GRID          1
EDA_CLS_DISP     true
FD_MAT_VEC_PROD  FALSE
$end
