$molecule
1 1
--
1 1
Li     0.000000     0.000000     0.000000
--
0 1
O     -1.054262     1.033472     1.093346
H     -1.730482     0.532374     1.562433
H     -1.571843     1.575637     0.505802
O     -0.744178    -1.532605    -0.783434
H     -0.277426    -1.988784    -1.466297
H     -1.469992    -1.214014    -1.334823
O      1.660220    -0.198584     0.829101
H      2.081802    -0.988587     0.338437
H      2.282426     0.471872     1.056824
$end

$rem
JOBTYPE          eda
EDA2             1
METHOD           wB97M-V
BASIS            def2-TZVPPD
SYMMETRY         false
MEM_TOTAL        50000
MEM_STATIC       10000
THRESH           14
SCF_CONVERGENCE  8
XC_GRID          000099000590
NL_GRID          1
EDA_CLS_DISP     true
FD_MAT_VEC_PROD  FALSE
$end
