$molecule
1 1
--
1 1
Li     0.000000     0.000000     0.000000
--
0 1
O      0.417117    -1.590090    -0.715265
H      0.113479    -1.780133    -1.561165
H     -0.072674    -2.333038    -0.261775
O     -0.978605     0.856936    -1.604785
H     -0.831895     0.649771    -2.541595
H     -1.405275     1.676017    -1.545406
O      1.758787     1.151787     0.325826
H      1.656124     1.242794     1.331459
H      2.733052     0.921730     0.180866
O     -0.660341    -0.397747     1.752656
H     -1.486978    -0.023294     2.186827
H     -0.498526    -1.285573     1.955375
$end

$rem
JOBTYPE          eda
EDA2             1
METHOD           wB97M-V
BASIS            def2-TZVPPD
SYMMETRY         false
MEM_TOTAL        50000
MEM_STATIC       10000
THRESH           14
SCF_CONVERGENCE  8
XC_GRID          000099000590
NL_GRID          1
EDA_CLS_DISP     true
FD_MAT_VEC_PROD  FALSE
$end
