$molecule
1 1
--
1 1
Li     0.000000     0.000000     0.000000
--
0 1
O     -1.959429     0.551722    -0.115906
H     -2.501903     1.114878     0.470899
H     -2.703678     0.065273    -0.568937
O      0.234542    -1.408943     1.091451
H     -0.520325    -2.028104     0.922529
H      0.330550    -1.475194     2.088232
O      0.911987     1.610117     0.968941
H      1.448281     1.554265     1.803833
H      1.223738     2.292862     0.375246
O      0.842688     0.233769    -1.798413
H      0.637542    -0.124408    -2.680969
H      1.557305     0.923962    -1.781956
$end

$rem
JOBTYPE          eda
EDA2             1
METHOD           wB97M-V
BASIS            def2-TZVPPD
SYMMETRY         false
MEM_TOTAL        50000
MEM_STATIC       10000
THRESH           14
SCF_CONVERGENCE  8
XC_GRID          000099000590
NL_GRID          1
EDA_CLS_DISP     true
FD_MAT_VEC_PROD  FALSE
$end
