$molecule
1 1
--
1 1
Li     0.000000     0.000000     0.000000
--
0 1
O     -1.599702    -0.834408    -0.032075
H     -1.671490    -1.753336     0.164015
H     -2.104307    -0.340925     0.605746
O      0.005994     1.410873     1.210917
H     -0.817348     1.609443     0.914181
H     -0.067656     1.285409     2.156336
O      0.490183     0.722640    -1.670961
H      0.003584     0.447548    -2.436389
H      1.403239     0.553948    -1.838663
$end

$rem
JOBTYPE          eda
EDA2             1
METHOD           wB97M-V
BASIS            def2-TZVPPD
SYMMETRY         false
MEM_TOTAL        50000
MEM_STATIC       10000
THRESH           14
SCF_CONVERGENCE  8
XC_GRID          000099000590
NL_GRID          1
EDA_CLS_DISP     true
FD_MAT_VEC_PROD  FALSE
$end
