$molecule
1 1
--
1 1
Li     0.000000     0.000000     0.000000
--
0 1
O      1.891419    -0.158379     0.528671
H      2.349768    -0.987879     0.327543
H      1.829373    -0.013513     1.475622
O     -0.554841     1.482555     1.052622
H     -0.087815     1.879686     1.842708
H     -0.786767     2.214477     0.472406
O     -0.527123    -0.402664    -1.792316
H     -0.769570     0.305457    -2.402126
H     -0.735432    -1.286504    -2.275183
$end

$rem
JOBTYPE          eda
EDA2             1
METHOD           wB97M-V
BASIS            def2-TZVPPD
SYMMETRY         false
MEM_TOTAL        50000
MEM_STATIC       10000
THRESH           14
SCF_CONVERGENCE  8
XC_GRID          000099000590
NL_GRID          1
EDA_CLS_DISP     true
FD_MAT_VEC_PROD  FALSE
$end
