$molecule
1 1
--
1 1
Li     0.000000     0.000000     0.000000
--
0 1
O      1.014907    -1.846591     0.065476
H      0.268180    -2.329649    -0.359526
H      1.399774    -2.433915     0.796256
O      1.462449     1.073689     0.580959
H      1.086336     1.782468     1.119353
H      2.002930     0.547479     1.110363
O     -0.252680     0.490401    -1.807295
H      0.113651     0.060304    -2.550227
H     -1.152599     0.460089    -2.081251
O     -1.692409     0.463443     0.935552
H     -2.421769     0.480840     0.338377
H     -1.923923    -0.014474     1.749577
$end

$rem
JOBTYPE          eda
EDA2             1
METHOD           wB97M-V
BASIS            def2-TZVPPD
SYMMETRY         false
MEM_TOTAL        50000
MEM_STATIC       10000
THRESH           14
SCF_CONVERGENCE  8
XC_GRID          000099000590
NL_GRID          1
EDA_CLS_DISP     true
FD_MAT_VEC_PROD  FALSE
$end
