$molecule
1 1
--
1 1
Li     0.000000     0.000000     0.000000
--
0 1
O      0.647883     0.164741    -1.949481
H      0.795272    -0.525507    -2.602115
H      0.457108     1.105193    -2.354509
O     -0.976045     1.405748     0.625342
H     -0.496767     2.104540     1.009624
H     -1.582079     1.799875     0.027250
O     -1.260034    -1.585226     0.021824
H     -0.751180    -2.408299    -0.156525
H     -2.038513    -1.751498    -0.490334
O      1.554816    -0.718133     0.753645
H      1.658146    -1.557676     1.200674
H      2.157510    -0.074449     1.263032
$end

$rem
JOBTYPE          eda
EDA2             1
METHOD           wB97M-V
BASIS            def2-TZVPPD
SYMMETRY         false
MEM_TOTAL        50000
MEM_STATIC       10000
THRESH           14
SCF_CONVERGENCE  8
XC_GRID          000099000590
NL_GRID          1
EDA_CLS_DISP     true
FD_MAT_VEC_PROD  FALSE
$end
