$molecule
1 1
--
1 1
Li     0.000000     0.000000     0.000000
--
0 1
O      0.552963    -1.749645     0.131307
H      1.284114    -2.048599    -0.399136
H      0.552090    -2.127656     1.036364
O      1.541907     1.226823    -0.519578
H      1.551480     2.047459     0.018367
H      1.441348     1.555636    -1.465228
O     -0.063798     0.553262     1.985834
H      0.380477     1.157738     2.576072
H     -0.932985     0.385820     2.447181
O     -1.255138     0.486686    -1.137426
H     -1.106484     0.045005    -1.941916
H     -1.576557     1.362913    -1.297025
$end

$rem
JOBTYPE          eda
EDA2             1
METHOD           wB97M-V
BASIS            def2-TZVPPD
SYMMETRY         false
MEM_TOTAL        50000
MEM_STATIC       10000
THRESH           14
SCF_CONVERGENCE  8
XC_GRID          000099000590
NL_GRID          1
EDA_CLS_DISP     true
FD_MAT_VEC_PROD  FALSE
$end
