$molecule
1 1
--
1 1
Li     0.000000     0.000000     0.000000
--
0 1
O      0.834436    -0.241329    -1.578276
H      1.191917    -1.111872    -1.723723
H      1.469698     0.437227    -1.857302
O     -1.157150    -1.678256     0.354050
H     -2.090219    -1.865260     0.521759
H     -0.712408    -2.505514     0.115149
O     -1.517712     1.412924    -0.255778
H     -1.084382     2.261262    -0.283873
H     -1.989995     1.420311     0.576573
O      0.904310     1.187102     1.315687
H      1.168203     0.886967     2.209891
H      0.442074     1.996661     1.434603
$end

$rem
JOBTYPE          eda
EDA2             1
METHOD           wB97M-V
BASIS            def2-TZVPPD
SYMMETRY         false
MEM_TOTAL        50000
MEM_STATIC       10000
THRESH           14
SCF_CONVERGENCE  8
XC_GRID          000099000590
NL_GRID          1
EDA_CLS_DISP     true
FD_MAT_VEC_PROD  FALSE
$end
