$molecule
1 1
--
1 1
Li     0.000000     0.000000     0.000000
--
0 1
O      0.266584     0.944052    -1.709450
H      0.979641     0.533414    -2.222257
H      0.507280     1.865020    -1.611472
O      1.380118    -0.496219     0.894533
H      1.295780    -0.523941     1.838069
H      1.512954    -1.400379     0.559638
O     -1.093945     1.554286     0.618531
H     -1.031922     1.943137     1.492156
H     -1.412017     2.309903     0.160618
O     -1.327662    -1.629141    -0.158356
H     -2.193596    -1.227361    -0.264880
H     -1.324595    -2.080127     0.693064
$end

$rem
JOBTYPE          eda
EDA2             1
METHOD           wB97M-V
BASIS            def2-TZVPPD
SYMMETRY         false
MEM_TOTAL        50000
MEM_STATIC       10000
THRESH           14
SCF_CONVERGENCE  8
XC_GRID          000099000590
NL_GRID          1
EDA_CLS_DISP     true
FD_MAT_VEC_PROD  FALSE
$end
