$molecule
1 1
--
1 1
Li     0.000000     0.000000     0.000000
--
0 1
O      0.555055     1.756291    -0.173155
H      1.019401     2.013188    -0.983328
H      0.529311     2.536414     0.420306
O     -1.811688     0.111938    -0.737650
H     -2.603305     0.554410    -0.404862
H     -2.093361    -0.742220    -1.185759
O      0.926386    -1.366764    -1.203158
H      0.261493    -1.902613    -1.696554
H      1.278228    -0.703441    -1.798368
O     -0.610731    -0.311488     1.950183
H     -1.529573    -0.612056     1.947277
H     -0.415540     0.410401     2.511917
$end

$rem
JOBTYPE          eda
EDA2             1
METHOD           wB97M-V
BASIS            def2-TZVPPD
SYMMETRY         false
MEM_TOTAL        50000
MEM_STATIC       10000
THRESH           14
SCF_CONVERGENCE  8
XC_GRID          000099000590
NL_GRID          1
EDA_CLS_DISP     true
FD_MAT_VEC_PROD  FALSE
$end
