$molecule
1 1
--
1 1
Li     0.000000     0.000000     0.000000
--
0 1
O     -1.032842     0.396425    -1.658178
H     -1.279584     0.014094    -2.509117
H     -1.562276     1.236030    -1.642107
O     -0.418356     0.747917     1.594078
H      0.358018     0.959903     2.183691
H     -0.999293     1.461192     1.564220
O      1.442274     1.084928    -0.518287
H      1.966751     1.852884    -0.286094
H      1.473632     0.916597    -1.471009
O      0.031737    -1.911179     0.426641
H      0.902421    -2.258501     0.761336
H     -0.721623    -2.124603     0.942511
$end

$rem
JOBTYPE          eda
EDA2             1
METHOD           wB97M-V
BASIS            def2-TZVPPD
SYMMETRY         false
MEM_TOTAL        50000
MEM_STATIC       10000
THRESH           14
SCF_CONVERGENCE  8
XC_GRID          000099000590
NL_GRID          1
EDA_CLS_DISP     true
FD_MAT_VEC_PROD  FALSE
$end
