$molecule
1 1
--
1 1
Li     0.000000     0.000000     0.000000
--
0 1
O      1.062713     1.375749    -0.711183
H      1.377317     2.084377    -0.192248
H      1.714223     1.224250    -1.484560
O      0.041409    -1.808033    -0.905068
H     -0.852499    -2.198037    -1.105551
H      0.420454    -2.347752    -0.193979
O     -1.559472     0.921783     0.230278
H     -1.884578     1.208158    -0.631528
H     -2.246300     0.361082     0.596645
O      0.774279    -0.126335     1.869200
H      0.785258     0.524247     2.549420
H      0.581091    -0.983439     2.283012
$end

$rem
JOBTYPE          eda
EDA2             1
METHOD           wB97M-V
BASIS            def2-TZVPPD
SYMMETRY         false
MEM_TOTAL        50000
MEM_STATIC       10000
THRESH           14
SCF_CONVERGENCE  8
XC_GRID          000099000590
NL_GRID          1
EDA_CLS_DISP     true
FD_MAT_VEC_PROD  FALSE
$end
