$molecule
1 1
--
1 1
Li     0.000000     0.000000     0.000000
--
0 1
O      0.181903     1.777450    -0.729930
H      0.593085     1.934525    -1.596672
H      0.280321     2.525539    -0.178489
O     -1.196907    -1.054425    -1.199409
H     -2.179947    -1.140973    -1.113703
H     -0.981597    -0.750434    -2.076686
O      1.630893    -0.829171     0.343299
H      1.796402    -1.357139     1.140948
H      2.284558    -1.180292    -0.243308
$end

$rem
JOBTYPE          eda
EDA2             1
METHOD           wB97M-V
BASIS            def2-TZVPPD
SYMMETRY         false
MEM_TOTAL        50000
MEM_STATIC       10000
THRESH           14
SCF_CONVERGENCE  8
XC_GRID          000099000590
NL_GRID          1
EDA_CLS_DISP     true
FD_MAT_VEC_PROD  FALSE
$end
