$molecule
1 1
--
1 1
Li     0.000000     0.000000     0.000000
--
0 1
O      1.023000     0.620441     1.583861
H      1.455219     0.253028     2.357655
H      1.073738     1.617144     1.656624
O      0.990010    -1.210458    -1.226372
H      0.996585    -0.767777    -2.058657
H      0.892016    -2.180068    -1.332978
O     -0.199397     1.811129    -0.706428
H     -0.471302     2.120332    -1.569275
H     -0.590440     2.361535    -0.067867
$end

$rem
JOBTYPE          eda
EDA2             1
METHOD           wB97M-V
BASIS            def2-TZVPPD
SYMMETRY         false
MEM_TOTAL        50000
MEM_STATIC       10000
THRESH           14
SCF_CONVERGENCE  8
XC_GRID          000099000590
NL_GRID          1
EDA_CLS_DISP     true
FD_MAT_VEC_PROD  FALSE
$end
