$molecule
1 1
--
1 1
Li     0.000000     0.000000     0.000000
--
0 1
O     -0.960185    -1.720806     0.734715
H     -1.609753    -1.980636     0.053101
H     -1.464227    -1.639800     1.581140
O     -0.437682     0.868054     1.944262
H      0.112980     1.630091     1.719873
H      0.152970     0.176865     2.309788
O     -1.028560     1.162893    -1.082054
H     -1.748052     1.570993    -0.564156
H     -1.147301     1.431115    -1.976130
O      1.527560    -0.693332    -0.338641
H      1.804729    -1.158174    -1.131997
H      2.284838    -0.148433    -0.221551
$end

$rem
JOBTYPE          eda
EDA2             1
METHOD           wB97M-V
BASIS            def2-TZVPPD
SYMMETRY         false
MEM_TOTAL        50000
MEM_STATIC       10000
THRESH           14
SCF_CONVERGENCE  8
XC_GRID          000099000590
NL_GRID          1
EDA_CLS_DISP     true
FD_MAT_VEC_PROD  FALSE
$end
