$molecule
1 1
--
1 1
Li     0.000000     0.000000     0.000000
--
0 1
O     -1.338879    -1.195158     0.469759
H     -2.206298    -0.841443     0.411118
H     -1.348766    -2.032418     0.013778
O     -0.934211     1.705753    -0.411991
H     -1.886530     1.902021    -0.625808
H     -0.587757     2.579575    -0.080228
O      1.030291     0.006627    -1.612348
H      1.063590    -0.834805    -1.968945
H      0.649284     0.567706    -2.305850
O      1.441199    -0.544489     1.384860
H      0.936835    -0.980818     2.110251
H      1.651553     0.325783     1.741433
$end

$rem
JOBTYPE          eda
EDA2             1
METHOD           wB97M-V
BASIS            def2-TZVPPD
SYMMETRY         false
MEM_TOTAL        50000
MEM_STATIC       10000
THRESH           14
SCF_CONVERGENCE  8
XC_GRID          000099000590
NL_GRID          1
EDA_CLS_DISP     true
FD_MAT_VEC_PROD  FALSE
$end
