$molecule
1 1
--
1 1
Li     0.000000     0.000000     0.000000
--
0 1
O      0.308611     1.799941     0.055027
H      1.189178     2.084602    -0.029819
H     -0.214343     2.315908    -0.579745
O     -1.239702    -0.176525     1.570107
H     -1.160882    -1.124504     1.682038
H     -1.287511     0.291488     2.423735
O     -1.080482    -0.705916    -1.358061
H     -1.739894    -0.042264    -1.524104
H     -1.505441    -1.545786    -1.482370
O      1.386436    -1.321672    -0.001936
H      1.809813    -1.499437     0.850115
H      2.170025    -1.008615    -0.549659
$end

$rem
JOBTYPE          eda
EDA2             1
METHOD           wB97M-V
BASIS            def2-TZVPPD
SYMMETRY         false
MEM_TOTAL        50000
MEM_STATIC       10000
THRESH           14
SCF_CONVERGENCE  8
XC_GRID          000099000590
NL_GRID          1
EDA_CLS_DISP     true
FD_MAT_VEC_PROD  FALSE
$end
