$molecule
1 1
--
1 1
Li     0.000000     0.000000     0.000000
--
0 1
O      1.248744    -1.546356    -0.063915
H      1.572886    -2.181593    -0.699843
H      1.029516    -2.049213     0.724090
O      0.765829     1.000564     1.387872
H      0.151349     0.926457     2.100303
H      1.657507     0.667016     1.546448
O     -1.671574    -0.529749     0.598972
H     -1.713174    -1.282973     1.185456
H     -2.204628    -0.664548    -0.213532
O     -0.147700     1.539800    -1.361374
H      0.650302     2.003122    -1.769900
H     -0.810619     1.511850    -2.060867
$end

$rem
JOBTYPE          eda
EDA2             1
METHOD           wB97M-V
BASIS            def2-TZVPPD
SYMMETRY         false
MEM_TOTAL        50000
MEM_STATIC       10000
THRESH           14
SCF_CONVERGENCE  8
XC_GRID          000099000590
NL_GRID          1
EDA_CLS_DISP     true
FD_MAT_VEC_PROD  FALSE
$end
