$molecule
1 1
--
1 1
Li     0.000000     0.000000     0.000000
--
0 1
O      0.814019    -1.627178    -0.750547
H      0.515286    -1.888018    -1.619965
H      1.776685    -1.477163    -0.804751
O     -1.975126    -0.101471     0.138953
H     -2.662290     0.539971     0.324561
H     -2.473143    -0.849112    -0.390923
O      0.507752     1.359512    -1.147321
H      1.373943     1.714330    -1.381481
H      0.123691     1.025614    -1.939705
O      0.223291    -0.134039     1.993173
H      1.169830    -0.151311     2.130046
H      0.009339     0.679243     2.474654
$end

$rem
JOBTYPE          eda
EDA2             1
METHOD           wB97M-V
BASIS            def2-TZVPPD
SYMMETRY         false
MEM_TOTAL        50000
MEM_STATIC       10000
THRESH           14
SCF_CONVERGENCE  8
XC_GRID          000099000590
NL_GRID          1
EDA_CLS_DISP     true
FD_MAT_VEC_PROD  FALSE
$end
