$molecule
1 1
--
1 1
Li     0.000000     0.000000     0.000000
--
0 1
O     -1.250276    -0.767961    -1.527750
H     -0.774486    -1.486835    -1.895383
H     -2.179176    -0.820415    -1.767325
O     -1.166798    -0.535753     1.661617
H     -0.741108    -0.764670     2.507558
H     -1.879153    -1.203534     1.673004
O      0.410563     1.717860     0.405025
H      0.955455     1.673867     1.174611
H      1.000185     2.068463    -0.282656
O      1.643875    -1.072325    -0.704594
H      1.714216    -1.974251    -0.225525
H      2.114756    -1.224097    -1.564307
$end

$rem
JOBTYPE          eda
EDA2             1
METHOD           wB97M-V
BASIS            def2-TZVPPD
SYMMETRY         false
MEM_TOTAL        50000
MEM_STATIC       10000
THRESH           14
SCF_CONVERGENCE  8
XC_GRID          000099000590
NL_GRID          1
EDA_CLS_DISP     true
FD_MAT_VEC_PROD  FALSE
$end
