$molecule
1 1
--
1 1
Li     0.000000     0.000000     0.000000
--
0 1
O     -1.666848    -0.230775    -0.571178
H     -2.403845    -0.078846     0.061316
H     -1.852157    -1.160914    -0.900576
O      0.811830     1.681269     0.295015
H      1.209914     1.723784     1.184017
H      1.431522     2.147366    -0.312900
O      1.245948    -0.573251    -1.667623
H      0.710361    -0.536181    -2.500262
H      1.978230    -0.048153    -1.882404
$end

$rem
JOBTYPE          eda
EDA2             1
METHOD           wB97M-V
BASIS            def2-TZVPPD
SYMMETRY         false
MEM_TOTAL        50000
MEM_STATIC       10000
THRESH           14
SCF_CONVERGENCE  8
XC_GRID          000099000590
NL_GRID          1
EDA_CLS_DISP     true
FD_MAT_VEC_PROD  FALSE
$end
