$molecule
1 1
--
1 1
Li     0.000000     0.000000     0.000000
--
0 1
O     -0.101817    -1.813061    -0.036423
H     -0.471130    -2.250333    -0.763005
H      0.017925    -2.436449     0.694730
O     -1.581748     0.573901     1.043698
H     -1.213933     0.624233     1.880971
H     -1.854365     1.500408     0.850485
O      0.827787     0.387737    -1.742301
H      1.255888    -0.363424    -2.191003
H      1.514001     1.055898    -1.641117
$end

$rem
JOBTYPE          eda
EDA2             1
METHOD           wB97M-V
BASIS            def2-TZVPPD
SYMMETRY         false
MEM_TOTAL        50000
MEM_STATIC       10000
THRESH           14
SCF_CONVERGENCE  8
XC_GRID          000099000590
NL_GRID          1
EDA_CLS_DISP     true
FD_MAT_VEC_PROD  FALSE
$end
