$molecule
1 1
--
1 1
Li     0.000000     0.000000     0.000000
--
0 1
O     -1.720601    -0.454939     0.668843
H     -2.367035    -0.441477     1.379955
H     -2.112942    -1.235939     0.197061
O      0.258055     1.761577     0.977628
H     -0.298766     2.544675     1.027660
H      0.877315     1.972477     1.753294
O      0.341148     0.486488    -2.065997
H      1.299138     0.518447    -2.285794
H      0.121500     1.408985    -2.167791
O      1.225061    -1.617859     0.341381
H      0.889538    -2.345444     0.815641
H      1.490168    -2.059704    -0.492452
$end

$rem
JOBTYPE          eda
EDA2             1
METHOD           wB97M-V
BASIS            def2-TZVPPD
SYMMETRY         false
MEM_TOTAL        50000
MEM_STATIC       10000
THRESH           14
SCF_CONVERGENCE  8
XC_GRID          000099000590
NL_GRID          1
EDA_CLS_DISP     true
FD_MAT_VEC_PROD  FALSE
$end
