$molecule
1 1
--
1 1
Li     0.000000     0.000000     0.000000
--
0 1
O      0.550681     0.947423     1.505334
H      0.161846     0.907748     2.392860
H      1.467969     1.175398     1.691757
O      0.754605    -1.279638    -0.954929
H      0.270620    -2.057244    -1.226441
H      1.014806    -0.868615    -1.816737
O      0.567737     1.533188    -1.263215
H      1.376336     2.087318    -1.155885
H     -0.117822     2.050584    -1.738495
O     -1.991045     0.342734    -0.264047
H     -2.302911     0.449848    -1.148678
H     -2.370736     1.090364     0.255936
$end

$rem
JOBTYPE          eda
EDA2             1
METHOD           wB97M-V
BASIS            def2-TZVPPD
SYMMETRY         false
MEM_TOTAL        50000
MEM_STATIC       10000
THRESH           14
SCF_CONVERGENCE  8
XC_GRID          000099000590
NL_GRID          1
EDA_CLS_DISP     true
FD_MAT_VEC_PROD  FALSE
$end
