$molecule
1 1
--
1 1
Li     0.000000     0.000000     0.000000
--
0 1
O     -1.789506    -1.056934    -0.088662
H     -2.270001    -1.416814     0.653930
H     -2.363175    -1.218597    -0.863242
O      0.279767     1.907371     0.284771
H      0.476565     2.388574    -0.523007
H      1.091074     1.967825     0.824365
O      0.700472    -0.401485    -1.683438
H      0.674482    -1.335976    -1.879120
H      0.103655     0.037381    -2.268641
O      1.421464    -0.932024     0.947236
H      1.436621    -1.871810     0.673333
H      1.380837    -1.071578     1.956669
$end

$rem
JOBTYPE          eda
EDA2             1
METHOD           wB97M-V
BASIS            def2-TZVPPD
SYMMETRY         false
MEM_TOTAL        50000
MEM_STATIC       10000
THRESH           14
SCF_CONVERGENCE  8
XC_GRID          000099000590
NL_GRID          1
EDA_CLS_DISP     true
FD_MAT_VEC_PROD  FALSE
$end
