$molecule
1 1
--
1 1
Li     0.000000     0.000000     0.000000
--
0 1
O     -0.640365     1.689708    -0.437904
H     -0.947848     2.436251     0.118257
H     -0.375875     2.071206    -1.343003
O     -0.938579    -0.924804    -1.558802
H     -1.517519    -0.334733    -2.007314
H     -0.339862    -1.423081    -2.166337
O      1.855579     0.005682    -0.344725
H      2.067217    -0.495737    -1.130002
H      2.498269    -0.321495     0.326646
O     -0.731485    -1.139576     1.603199
H     -0.628082    -0.542600     2.334045
H     -1.652610    -1.061287     1.341316
$end

$rem
JOBTYPE          eda
EDA2             1
METHOD           wB97M-V
BASIS            def2-TZVPPD
SYMMETRY         false
MEM_TOTAL        50000
MEM_STATIC       10000
THRESH           14
SCF_CONVERGENCE  8
XC_GRID          000099000590
NL_GRID          1
EDA_CLS_DISP     true
FD_MAT_VEC_PROD  FALSE
$end
