$molecule
1 1
--
1 1
Li     0.000000     0.000000     0.000000
--
0 1
O     -1.794227     0.878304     0.383152
H     -2.284044     0.065626     0.360832
H     -2.211283     1.348316    -0.381184
O      0.587966    -1.606327     0.751206
H      0.384051    -2.413930     0.275990
H      1.532090    -1.679654     1.064559
O      1.426308     1.329057     0.381484
H      1.492507     1.221218     1.387216
H      2.369890     1.360172     0.089581
O     -0.005725    -0.582202    -1.970709
H     -0.732065    -0.750880    -2.621085
H      0.674197    -1.253645    -2.250473
$end

$rem
JOBTYPE          eda
EDA2             1
METHOD           wB97M-V
BASIS            def2-TZVPPD
SYMMETRY         false
MEM_TOTAL        50000
MEM_STATIC       10000
THRESH           14
SCF_CONVERGENCE  8
XC_GRID          000099000590
NL_GRID          1
EDA_CLS_DISP     true
FD_MAT_VEC_PROD  FALSE
$end
