$molecule
1 1
--
1 1
Li     0.000000     0.000000     0.000000
--
0 1
O     -0.726839    -0.118102     1.911175
H     -0.115967    -0.212325     2.688357
H     -1.622471    -0.399297     2.175709
O      0.992835     1.593091     0.218464
H      0.702150     2.401769     0.685617
H      1.134015     1.873018    -0.713415
O      0.978893    -1.627265    -0.419354
H      0.322428    -2.297315    -0.615808
H      1.423814    -1.960308     0.436537
O     -1.645151    -0.250685    -1.119639
H     -1.834142     0.556153    -1.664355
H     -2.442203    -0.433569    -0.617930
$end

$rem
JOBTYPE          eda
EDA2             1
METHOD           wB97M-V
BASIS            def2-TZVPPD
SYMMETRY         false
MEM_TOTAL        50000
MEM_STATIC       10000
THRESH           14
SCF_CONVERGENCE  8
XC_GRID          000099000590
NL_GRID          1
EDA_CLS_DISP     true
FD_MAT_VEC_PROD  FALSE
$end
