$molecule
1 1
--
1 1
Li     0.000000     0.000000     0.000000
--
0 1
O      0.284917     1.873038     0.598396
H     -0.265799     2.437262     1.203763
H      0.312342     2.308963    -0.239182
O      1.375746    -1.157772    -0.584152
H      2.185946    -1.587349    -0.474694
H      0.789827    -1.882919    -1.039732
O     -0.959321     0.359899    -1.687719
H     -1.273101     1.273988    -1.980653
H     -0.367583     0.108484    -2.390242
O     -0.285954    -0.870627     1.731899
H      0.387606    -1.563219     1.998960
H     -1.094979    -1.130535     2.143406
$end

$rem
JOBTYPE          eda
EDA2             1
METHOD           wB97M-V
BASIS            def2-TZVPPD
SYMMETRY         false
MEM_TOTAL        50000
MEM_STATIC       10000
THRESH           14
SCF_CONVERGENCE  8
XC_GRID          000099000590
NL_GRID          1
EDA_CLS_DISP     true
FD_MAT_VEC_PROD  FALSE
$end
