$molecule
1 1
--
1 1
Na     0.000000     0.000000     0.000000
--
0 1
O     -0.016634     2.345683    -0.609321
H      0.441678     2.450256    -1.409300
H      0.733689     2.265644     0.005770
O      0.406428    -1.097493    -2.293116
H      0.899427    -0.937944    -3.106605
H      0.661938    -1.992354    -2.078615
O      2.069479     1.034300     0.451098
H      2.747916     1.000797    -0.192622
H      2.391647     0.698374     1.298185
O     -1.213915     0.523942     1.927405
H     -1.110685     1.402355     2.320522
H     -2.137289     0.311989     1.834560
O      1.342782    -1.704267     1.482592
H      0.507916    -2.003377     1.175612
H      1.850860    -2.539289     1.574754
O     -1.325409    -1.920437     0.348480
H     -1.929786    -1.973954     1.095278
H     -1.800531    -2.290450    -0.440086
$end

$rem
JOBTYPE          eda
EDA2             1
METHOD           wB97M-V
BASIS            def2-TZVPPD
SYMMETRY         false
MEM_TOTAL        50000
MEM_STATIC       10000
THRESH           14
SCF_CONVERGENCE  8
XC_GRID          000099000590
NL_GRID          1
EDA_CLS_DISP     true
FD_MAT_VEC_PROD  FALSE
$end
