$molecule
1 1
--
1 1
Na     0.000000     0.000000     0.000000
--
0 1
O     -2.261961     1.217191     0.375676
H     -2.319771     0.725206     1.230404
H     -2.115469     2.079564     0.782307
O      0.486184     1.167985    -1.873883
H      1.475220     1.083745    -1.817610
H      0.344352     2.132995    -1.761720
O      0.722217     0.847010     2.215250
H      1.295874     1.594855     2.044533
H      1.115391     0.266313     2.859288
O      2.364881    -0.815744    -0.208489
H      2.395551    -1.654726     0.299478
H      2.540953    -0.931226    -1.162329
O     -1.292387    -1.428775     1.297161
H     -1.008717    -1.931975     2.092847
H     -1.907300    -1.938032     0.765697
$end

$rem
JOBTYPE          eda
EDA2             1
METHOD           wB97M-V
BASIS            def2-TZVPPD
SYMMETRY         false
MEM_TOTAL        50000
MEM_STATIC       10000
THRESH           14
SCF_CONVERGENCE  8
XC_GRID          000099000590
NL_GRID          1
EDA_CLS_DISP     true
FD_MAT_VEC_PROD  FALSE
$end
