$molecule
1 1
--
1 1
Na     0.000000     0.000000     0.000000
--
0 1
O      0.573445     0.522482    -2.425718
H      0.565546    -0.283950    -2.909351
H     -0.117345     1.111605    -2.808292
O     -1.679400    -0.610316     1.453133
H     -1.385658    -0.169377     2.284592
H     -1.324565    -1.507257     1.282268
O      0.799290     2.100325     0.839463
H      1.724281     2.237643     0.911781
H      0.337870     2.956704     0.693773
O      1.544445    -1.816388     0.444477
H      2.490067    -1.614678     0.281276
H      1.362461    -2.682268     0.137746
$end

$rem
JOBTYPE          eda
EDA2             1
METHOD           wB97M-V
BASIS            def2-TZVPPD
SYMMETRY         false
MEM_TOTAL        50000
MEM_STATIC       10000
THRESH           14
SCF_CONVERGENCE  8
XC_GRID          000099000590
NL_GRID          1
EDA_CLS_DISP     true
FD_MAT_VEC_PROD  FALSE
$end
