$molecule
1 1
--
1 1
Na     0.000000     0.000000     0.000000
--
0 1
O     -2.215330    -1.211537    -0.435171
H     -2.946479    -1.040175     0.184638
H     -2.480537    -0.897294    -1.285925
O     -1.377703     1.646645     0.851564
H     -0.838544     2.401427     0.750035
H     -2.139544     1.659704     0.318542
O      2.135687     1.382859    -0.640918
H      2.124534     2.024732    -1.423235
H      3.036809     1.045545    -0.627099
O      0.991615    -1.503469    -1.538780
H      0.523070    -2.328162    -1.765905
H      1.872728    -1.692798    -1.836695
O      0.609934    -0.580290     2.198415
H      1.329489    -1.199807     2.453223
H      0.835592     0.356422     2.441611
$end

$rem
JOBTYPE          eda
EDA2             1
METHOD           wB97M-V
BASIS            def2-TZVPPD
SYMMETRY         false
MEM_TOTAL        50000
MEM_STATIC       10000
THRESH           14
SCF_CONVERGENCE  8
XC_GRID          000099000590
NL_GRID          1
EDA_CLS_DISP     true
FD_MAT_VEC_PROD  FALSE
$end
