$molecule
1 1
--
1 1
Na     0.000000     0.000000     0.000000
--
0 1
O      1.334000    -1.849241     0.833682
H      0.843314    -2.454108     0.292436
H      1.075079    -1.910830     1.778471
O      0.600992     2.170522     0.487660
H      0.984422     2.164393     1.361891
H     -0.125654     2.794966     0.541435
O     -0.992808     0.222812     2.227261
H     -1.843637     0.610825     2.337129
H     -0.512337     0.213665     3.094299
O     -0.600025    -1.874107    -1.325344
H     -0.153155    -2.069651    -2.176957
H     -1.332728    -2.491016    -1.134304
O     -2.219894     1.097809    -0.293701
H     -2.721279     0.507752    -0.888427
H     -2.724866     1.291058     0.464875
$end

$rem
JOBTYPE          eda
EDA2             1
METHOD           wB97M-V
BASIS            def2-TZVPPD
SYMMETRY         false
MEM_TOTAL        50000
MEM_STATIC       10000
THRESH           14
SCF_CONVERGENCE  8
XC_GRID          000099000590
NL_GRID          1
EDA_CLS_DISP     true
FD_MAT_VEC_PROD  FALSE
$end
