$molecule
1 1
--
1 1
Na     0.000000     0.000000     0.000000
--
0 1
O     -1.550334     1.816641    -0.647719
H     -1.763595     2.148064    -1.549173
H     -2.345886     1.993166    -0.095342
O      1.776229    -0.620344    -1.543284
H      1.957125    -1.432281    -2.104550
H      2.456253     0.027568    -1.657251
O     -0.110460    -0.599504     2.332443
H     -0.274930    -0.167045     3.165026
H     -0.837619    -1.226720     2.297426
O     -1.487710    -1.471897    -1.190235
H     -2.323235    -1.734375    -0.749536
H     -1.811237    -1.091178    -2.013706
$end

$rem
JOBTYPE          eda
EDA2             1
METHOD           wB97M-V
BASIS            def2-TZVPPD
SYMMETRY         false
MEM_TOTAL        50000
MEM_STATIC       10000
THRESH           14
SCF_CONVERGENCE  8
XC_GRID          000099000590
NL_GRID          1
EDA_CLS_DISP     true
FD_MAT_VEC_PROD  FALSE
$end
