$molecule
1 1
--
1 1
Na     0.000000     0.000000     0.000000
--
0 1
O      1.277477    -1.767812    -0.575450
H      0.780188    -2.469714    -0.998624
H      2.217875    -1.661537    -0.908748
O     -1.969258     1.692991    -0.479796
H     -2.121142     1.504376    -1.395083
H     -1.578749     2.546515    -0.346354
O      2.202998     0.822357    -0.111544
H      3.092868     0.791390     0.244148
H      2.456428     0.648289    -1.002973
O     -1.745283    -1.493277     0.287650
H     -1.790260    -1.500231     1.250476
H     -1.310641    -2.335748     0.072603
$end

$rem
JOBTYPE          eda
EDA2             1
METHOD           wB97M-V
BASIS            def2-TZVPPD
SYMMETRY         false
MEM_TOTAL        50000
MEM_STATIC       10000
THRESH           14
SCF_CONVERGENCE  8
XC_GRID          000099000590
NL_GRID          1
EDA_CLS_DISP     true
FD_MAT_VEC_PROD  FALSE
$end
