$molecule
1 1
--
1 1
Na     0.000000     0.000000     0.000000
--
0 1
O     -0.034535     1.231489    -2.218136
H      0.606959     1.824112    -2.604967
H     -0.908760     1.375753    -2.636306
O      2.509633    -0.358357    -0.458430
H      2.814224    -0.209112     0.444792
H      2.813634     0.361272    -1.001100
O     -2.323793     0.459139     0.520834
H     -3.041218     0.076369     0.031045
H     -2.786487     1.059008     1.202974
O     -0.225495    -2.522497     0.781078
H     -0.490119    -2.643515     1.700931
H      0.498305    -3.103075     0.692877
O      0.964521     0.894478     1.841733
H      1.926174     0.986879     2.103443
H      0.445700     0.435486     2.501790
$end

$rem
JOBTYPE          eda
EDA2             1
METHOD           wB97M-V
BASIS            def2-TZVPPD
SYMMETRY         false
MEM_TOTAL        50000
MEM_STATIC       10000
THRESH           14
SCF_CONVERGENCE  8
XC_GRID          000099000590
NL_GRID          1
EDA_CLS_DISP     true
FD_MAT_VEC_PROD  FALSE
$end
