$molecule
1 1
--
1 1
Na     0.000000     0.000000     0.000000
--
0 1
O      1.626028     1.034922     1.580623
H      1.378579     0.724001     2.502033
H      2.064630     1.955065     1.635979
O     -1.372352    -2.180406    -0.667887
H     -1.156517    -2.493550     0.245784
H     -1.510414    -2.963832    -1.183852
O     -1.339998     1.807402     0.199177
H     -1.582903     2.201952    -0.688290
H     -1.288117     2.504336     0.887083
O     -1.123329    -0.697031     2.020695
H     -0.556554    -0.315841     2.727097
H     -1.512463    -1.540032     2.286606
O     -0.325095     0.344770    -2.289885
H     -0.904628    -0.206831    -2.834921
H      0.583007     0.391315    -2.704986
$end

$rem
JOBTYPE          eda
EDA2             1
METHOD           wB97M-V
BASIS            def2-TZVPPD
SYMMETRY         false
MEM_TOTAL        50000
MEM_STATIC       10000
THRESH           14
SCF_CONVERGENCE  8
XC_GRID          000099000590
NL_GRID          1
EDA_CLS_DISP     true
FD_MAT_VEC_PROD  FALSE
$end
