$molecule
1 1
--
1 1
Na     0.000000     0.000000     0.000000
--
0 1
O     -0.180563    -2.182435    -1.037186
H     -0.065729    -2.790783    -0.341971
H      0.562536    -2.355411    -1.643452
O     -2.000451     0.701464     1.294659
H     -2.079251     1.430673     1.914902
H     -2.917867     0.429247     1.133965
O      2.097239    -0.812440     1.323753
H      2.024424    -0.994505     2.233103
H      2.996688    -0.460673     1.257813
O     -1.974202     0.884704    -1.534663
H     -1.703341     1.810095    -1.514027
H     -2.843633     0.881741    -1.122339
O      1.776401     0.618314    -1.270304
H      1.704603     0.388928    -2.211294
H      1.922183     1.547468    -1.244006
$end

$rem
JOBTYPE          eda
EDA2             1
METHOD           wB97M-V
BASIS            def2-TZVPPD
SYMMETRY         false
MEM_TOTAL        50000
MEM_STATIC       10000
THRESH           14
SCF_CONVERGENCE  8
XC_GRID          000099000590
NL_GRID          1
EDA_CLS_DISP     true
FD_MAT_VEC_PROD  FALSE
$end
