$molecule
1 1
--
1 1
Na     0.000000     0.000000     0.000000
--
0 1
O      0.947812     1.899105     0.977031
H      1.807821     2.044401     0.657786
H      0.588989     2.792278     0.908818
O     -1.444642    -1.016969     1.456953
H     -1.254934    -1.253499     2.356975
H     -2.235372    -0.425228     1.524061
O      0.226467    -2.132852    -0.671381
H     -0.562565    -2.437496    -1.216545
H      0.659167    -2.880779    -0.216328
O     -1.530553     1.646078    -1.126636
H     -0.996697     2.420031    -1.296472
H     -2.107683     1.693328    -1.872568
O      1.383865     0.646444    -1.792448
H      1.257365     1.030067    -2.661942
H      2.278809     0.740204    -1.509904
$end

$rem
JOBTYPE          eda
EDA2             1
METHOD           wB97M-V
BASIS            def2-TZVPPD
SYMMETRY         false
MEM_TOTAL        50000
MEM_STATIC       10000
THRESH           14
SCF_CONVERGENCE  8
XC_GRID          000099000590
NL_GRID          1
EDA_CLS_DISP     true
FD_MAT_VEC_PROD  FALSE
$end
