$molecule
1 1
--
1 1
Na     0.000000     0.000000     0.000000
--
0 1
O      0.954819     1.660987    -1.074380
H      0.801764     2.636974    -1.072418
H      1.647407     1.475023    -1.768699
O      1.731358    -1.499028    -0.404719
H      1.341958    -2.259563     0.035339
H      1.778928    -1.780792    -1.299789
O      0.649501     0.267862     2.064278
H      1.262818     0.937200     2.368076
H      0.594691    -0.289524     2.874892
O     -1.650746     1.627578     1.227517
H     -0.937475     1.262507     1.773525
H     -2.433155     1.122101     1.300427
O     -1.573423    -0.329419    -1.795216
H     -2.311819     0.249475    -2.145586
H     -1.174989    -0.659191    -2.614392
$end

$rem
JOBTYPE          eda
EDA2             1
METHOD           wB97M-V
BASIS            def2-TZVPPD
SYMMETRY         false
MEM_TOTAL        50000
MEM_STATIC       10000
THRESH           14
SCF_CONVERGENCE  8
XC_GRID          000099000590
NL_GRID          1
EDA_CLS_DISP     true
FD_MAT_VEC_PROD  FALSE
$end
