$molecule
1 1
--
1 1
Na     0.000000     0.000000     0.000000
--
0 1
O      1.295992    -1.038055    -1.666929
H      1.199472    -0.914486    -2.588127
H      2.215709    -0.827473    -1.487559
O      0.945093    -1.880558     0.968601
H      1.449261    -2.195584     0.246835
H      0.398653    -2.523314     1.421842
O     -1.899954     0.291284     1.327143
H     -1.989905     1.254936     1.673416
H     -1.881234    -0.239655     2.109490
O      2.210054     0.959882     0.855124
H      2.866527     0.324916     0.526095
H      2.208158     0.741535     1.764241
O     -1.049559     1.773634    -1.401658
H     -0.352216     2.144695    -1.977073
H     -1.638655     1.166318    -1.764810
$end

$rem
JOBTYPE          eda
EDA2             1
METHOD           wB97M-V
BASIS            def2-TZVPPD
SYMMETRY         false
MEM_TOTAL        50000
MEM_STATIC       10000
THRESH           14
SCF_CONVERGENCE  8
XC_GRID          000099000590
NL_GRID          1
EDA_CLS_DISP     true
FD_MAT_VEC_PROD  FALSE
$end
