$molecule
1 1
--
1 1
Na     0.000000     0.000000     0.000000
--
0 1
O     -0.326768     2.408225     0.061285
H      0.544784     2.772753    -0.175390
H     -0.732186     2.969370     0.737395
O      0.756241     0.217993     2.191234
H      0.298885    -0.587551     2.571149
H      1.393189     0.622836     2.815605
O      1.186850    -2.317272     0.164521
H      1.872732    -2.329814     0.850027
H      0.683306    -3.146135     0.325061
O      1.885007     0.747789    -1.167856
H      2.689228     0.780065    -0.668381
H      2.068393     0.776155    -2.104132
O     -1.476463     0.638790    -1.711258
H     -0.833314     1.324452    -1.599428
H     -2.279710     1.059435    -1.296832
$end

$rem
JOBTYPE          eda
EDA2             1
METHOD           wB97M-V
BASIS            def2-TZVPPD
SYMMETRY         false
MEM_TOTAL        50000
MEM_STATIC       10000
THRESH           14
SCF_CONVERGENCE  8
XC_GRID          000099000590
NL_GRID          1
EDA_CLS_DISP     true
FD_MAT_VEC_PROD  FALSE
$end
