$molecule
1 1
--
1 1
Na     0.000000     0.000000     0.000000
--
0 1
O      2.097125    -0.497024     0.761194
H      2.050085    -1.449035     0.873033
H      2.546047    -0.299517     1.556234
O      0.694124     2.052469     0.671515
H      1.544738     2.338465     0.228031
H      0.070848     2.347446    -0.028200
O     -1.811270     0.275644    -1.321325
H     -2.577804     0.825547    -1.027113
H     -1.990529     0.001056    -2.250202
O     -2.004597     0.304099     1.444740
H     -2.367149     1.218233     1.601480
H     -2.783477    -0.189314     1.246767
$end

$rem
JOBTYPE          eda
EDA2             1
METHOD           wB97M-V
BASIS            def2-TZVPPD
SYMMETRY         false
MEM_TOTAL        50000
MEM_STATIC       10000
THRESH           14
SCF_CONVERGENCE  8
XC_GRID          000099000590
NL_GRID          1
EDA_CLS_DISP     true
FD_MAT_VEC_PROD  FALSE
$end
