$molecule
1 1
--
1 1
Na     0.000000     0.000000     0.000000
--
0 1
O      0.985243     1.361756    -1.542488
H      1.874246     1.350733    -1.934909
H      0.414988     1.260066    -2.324670
O      0.823978     0.878247     2.115655
H      1.298081     1.751934     2.375790
H      0.257828     0.586640     2.820213
O     -0.226418    -1.408438    -1.797917
H     -0.917865    -2.089083    -1.585986
H      0.448556    -1.874981    -2.327105
O     -1.974562     0.901395    -0.277079
H     -2.014013     1.682929     0.320102
H     -2.637138     0.327502     0.068322
$end

$rem
JOBTYPE          eda
EDA2             1
METHOD           wB97M-V
BASIS            def2-TZVPPD
SYMMETRY         false
MEM_TOTAL        50000
MEM_STATIC       10000
THRESH           14
SCF_CONVERGENCE  8
XC_GRID          000099000590
NL_GRID          1
EDA_CLS_DISP     true
FD_MAT_VEC_PROD  FALSE
$end
