$molecule
1 1
--
1 1
Na     0.000000     0.000000     0.000000
--
0 1
O     -1.116986    -1.262600     1.452823
H     -1.933314    -0.949816     1.831289
H     -1.388892    -2.089831     1.067611
O     -2.064765    -0.369848    -1.354204
H     -2.208321     0.074992    -2.228213
H     -2.865148    -0.793867    -1.087041
O     -0.752363     1.854057     1.354572
H     -1.096528     1.642435     2.231559
H     -1.447594     2.380144     0.877744
O      2.350808     0.315241     0.892599
H      3.010726     0.173134     0.141394
H      2.495966     1.172138     1.167830
O      1.084462     1.438589    -1.573635
H      1.544269     0.800080    -2.144693
H      1.595583     2.266747    -1.520243
$end

$rem
JOBTYPE          eda
EDA2             1
METHOD           wB97M-V
BASIS            def2-TZVPPD
SYMMETRY         false
MEM_TOTAL        50000
MEM_STATIC       10000
THRESH           14
SCF_CONVERGENCE  8
XC_GRID          000099000590
NL_GRID          1
EDA_CLS_DISP     true
FD_MAT_VEC_PROD  FALSE
$end
