$molecule
1 1
--
1 1
Na     0.000000     0.000000     0.000000
--
0 1
O     -1.276190    -1.895462    -0.040608
H     -2.127558    -2.381803    -0.032716
H     -0.649478    -2.617925    -0.097285
O      1.279520    -0.856733     1.908127
H      1.429020    -1.725810     1.617383
H      2.152061    -0.516055     2.066464
O      1.299180    -0.930748    -1.795194
H      1.895986    -0.426229    -2.417540
H      1.773401    -1.700742    -1.666497
O     -1.150366     1.204114    -1.632613
H     -0.622560     1.212033    -2.467742
H     -1.635570     2.032036    -1.478611
O      1.957058     1.448042    -0.052295
H      2.006511     1.818263     0.762342
H      2.834060     1.269535    -0.454297
$end

$rem
JOBTYPE          eda
EDA2             1
METHOD           wB97M-V
BASIS            def2-TZVPPD
SYMMETRY         false
MEM_TOTAL        50000
MEM_STATIC       10000
THRESH           14
SCF_CONVERGENCE  8
XC_GRID          000099000590
NL_GRID          1
EDA_CLS_DISP     true
FD_MAT_VEC_PROD  FALSE
$end
