$molecule
1 1
--
1 1
Na     0.000000     0.000000     0.000000
--
0 1
O     -1.892773     1.077634     1.090154
H     -1.602965     1.973592     1.238232
H     -1.975019     0.754811     1.992439
O      1.192296     1.455171     1.151359
H      1.688184     2.107167     0.722719
H      1.351737     1.611920     2.118416
O      0.911499     0.687294    -2.163820
H      0.543602     0.147142    -2.897860
H      1.861899     0.935014    -2.358198
O     -1.234329    -1.488967    -0.941371
H     -1.944835    -1.893957    -0.501962
H     -1.591545    -1.251163    -1.785640
$end

$rem
JOBTYPE          eda
EDA2             1
METHOD           wB97M-V
BASIS            def2-TZVPPD
SYMMETRY         false
MEM_TOTAL        50000
MEM_STATIC       10000
THRESH           14
SCF_CONVERGENCE  8
XC_GRID          000099000590
NL_GRID          1
EDA_CLS_DISP     true
FD_MAT_VEC_PROD  FALSE
$end
