$molecule
1 1
--
1 1
Na     0.000000     0.000000     0.000000
--
0 1
O     -1.476289     1.000580    -1.680201
H     -1.347957     0.330310    -2.372440
H     -2.429876     1.119469    -1.591365
O      2.003211     0.161049    -1.174825
H      2.679153     0.338854    -0.470757
H      1.973185     0.976483    -1.680248
O     -0.163112     1.557536     1.551695
H      0.623683     2.047554     1.538014
H     -0.465897     1.324097     2.431350
O     -1.395492    -1.854519    -0.938929
H     -1.529696    -2.656867    -0.415875
H     -1.708751    -2.067533    -1.827479
O      1.140018    -1.255107     1.603180
H      2.012796    -1.642493     1.425109
H      1.148354    -1.258433     2.534760
$end

$rem
JOBTYPE          eda
EDA2             1
METHOD           wB97M-V
BASIS            def2-TZVPPD
SYMMETRY         false
MEM_TOTAL        50000
MEM_STATIC       10000
THRESH           14
SCF_CONVERGENCE  8
XC_GRID          000099000590
NL_GRID          1
EDA_CLS_DISP     true
FD_MAT_VEC_PROD  FALSE
$end
