$molecule
1 1
--
1 1
Na     0.000000     0.000000     0.000000
--
0 1
O     -1.982434     0.371909     1.103721
H     -1.999968    -0.133509     1.915544
H     -2.677161    -0.029523     0.520499
O     -0.506861     1.576105    -1.534582
H     -1.312414     2.123471    -1.457035
H      0.255777     2.156557    -1.829559
O      1.680895    -0.267523    -1.814314
H      1.826160     0.587119    -2.126473
H      2.577908    -0.601219    -1.659205
O      1.269075    -0.963815     1.515438
H      1.588209    -1.762903     1.072335
H      1.939449    -0.207875     1.425336
$end

$rem
JOBTYPE          eda
EDA2             1
METHOD           wB97M-V
BASIS            def2-TZVPPD
SYMMETRY         false
MEM_TOTAL        50000
MEM_STATIC       10000
THRESH           14
SCF_CONVERGENCE  8
XC_GRID          000099000590
NL_GRID          1
EDA_CLS_DISP     true
FD_MAT_VEC_PROD  FALSE
$end
