$molecule
1 1
--
1 1
Na     0.000000     0.000000     0.000000
--
0 1
O      0.327213    -1.859611     1.348713
H      0.542964    -2.554233     0.688897
H     -0.548316    -2.057300     1.663678
O      1.960777     1.106108    -0.764745
H      1.831324     2.060066    -0.784795
H      2.497879     1.060595    -1.621372
O     -0.358398    -1.218556    -1.863096
H      0.174529    -1.439270    -2.616413
H     -0.633326    -2.005493    -1.343861
O     -1.731597     1.753884    -0.356645
H     -1.112098     2.484718    -0.459952
H     -1.915209     1.784048     0.600745
O      0.225207     1.568908     1.853126
H      0.455797     0.843306     2.428642
H      0.938072     2.204615     1.866753
$end

$rem
JOBTYPE          eda
EDA2             1
METHOD           wB97M-V
BASIS            def2-TZVPPD
SYMMETRY         false
MEM_TOTAL        50000
MEM_STATIC       10000
THRESH           14
SCF_CONVERGENCE  8
XC_GRID          000099000590
NL_GRID          1
EDA_CLS_DISP     true
FD_MAT_VEC_PROD  FALSE
$end
