$molecule
1 1
--
1 1
Na     0.000000     0.000000     0.000000
--
0 1
O     -2.058645     0.434487     1.171922
H     -2.658565     1.121252     0.841320
H     -2.557630    -0.382890     0.953784
O      1.051296     1.338895     2.009781
H      2.035858     1.255881     2.040475
H      0.850641     1.874788     2.758326
O     -0.639434    -1.764377    -1.349866
H     -1.458636    -1.683678    -1.767648
H     -0.058484    -1.996889    -2.070390
O      1.802084     1.145751    -1.009113
H      2.499224     1.024550    -1.661574
H      1.730347     2.091370    -0.837185
$end

$rem
JOBTYPE          eda
EDA2             1
METHOD           wB97M-V
BASIS            def2-TZVPPD
SYMMETRY         false
MEM_TOTAL        50000
MEM_STATIC       10000
THRESH           14
SCF_CONVERGENCE  8
XC_GRID          000099000590
NL_GRID          1
EDA_CLS_DISP     true
FD_MAT_VEC_PROD  FALSE
$end
