$molecule
1 1
--
1 1
Na     0.000000     0.000000     0.000000
--
0 1
O      2.161813     1.206626    -0.266700
H      2.702963     0.459594    -0.645875
H      2.788583     1.720992     0.282642
O     -0.556590    -0.575984    -2.179488
H     -1.017472     0.122616    -2.697717
H      0.357469    -0.689631    -2.443771
O      0.229150     0.481834     2.206901
H     -0.313539     1.262282     2.430655
H      0.022652    -0.088819     2.940612
O     -0.111430    -2.057137     0.450586
H     -0.126469    -2.559975    -0.403823
H     -0.555096    -2.521016     1.178518
O     -1.173824     1.990268    -0.285624
H     -1.323983     2.704336    -0.895645
H     -1.221891     2.483177     0.551307
$end

$rem
JOBTYPE          eda
EDA2             1
METHOD           wB97M-V
BASIS            def2-TZVPPD
SYMMETRY         false
MEM_TOTAL        50000
MEM_STATIC       10000
THRESH           14
SCF_CONVERGENCE  8
XC_GRID          000099000590
NL_GRID          1
EDA_CLS_DISP     true
FD_MAT_VEC_PROD  FALSE
$end
