$molecule
1 1
--
1 1
Na     0.000000     0.000000     0.000000
--
0 1
O     -0.451034    -1.697463     1.269793
H     -1.299480    -1.713730     1.650871
H      0.116268    -2.326969     1.787042
O      2.181291     0.802292     0.600639
H      2.001660     1.202889    -0.254796
H      1.826088     1.341891     1.245008
O     -2.020617     0.591528    -1.382805
H     -2.011262     0.924934    -2.259301
H     -2.600586     1.147604    -0.907925
O      1.106793     1.662868    -1.598105
H      0.664469     2.524075    -1.599745
H      1.116358     1.388905    -2.523674
O     -1.021770     1.888638     1.155341
H     -1.838470     1.688382     1.662850
H     -1.163799     2.645063     0.665315
$end

$rem
JOBTYPE          eda
EDA2             1
METHOD           wB97M-V
BASIS            def2-TZVPPD
SYMMETRY         false
MEM_TOTAL        50000
MEM_STATIC       10000
THRESH           14
SCF_CONVERGENCE  8
XC_GRID          000099000590
NL_GRID          1
EDA_CLS_DISP     true
FD_MAT_VEC_PROD  FALSE
$end
