$molecule
1 1
--
1 1
Na     0.000000     0.000000     0.000000
--
0 1
O     -0.634954     2.413494    -0.469274
H     -0.282418     2.529735     0.411993
H      0.141916     2.156275    -1.092832
O      1.214648     0.775486     1.918368
H      0.880044     0.448486     2.755494
H      1.217297     1.754919     1.974001
O     -0.701755    -1.577387     1.746965
H      0.074402    -2.165534     1.642667
H     -1.200487    -1.862180     2.524719
O     -0.775218    -1.328748    -1.945209
H     -1.162383    -1.989746    -1.350365
H     -0.197621    -1.804248    -2.558987
O      1.999358    -1.188625    -0.266368
H      1.946447    -1.713828    -1.091922
H      2.822903    -0.667217    -0.248495
O     -2.490267     0.426443     0.351436
H     -2.601949     1.346809     0.579271
H     -3.125572    -0.045171     0.927670
$end

$rem
JOBTYPE          eda
EDA2             1
METHOD           wB97M-V
BASIS            def2-TZVPPD
SYMMETRY         false
MEM_TOTAL        50000
MEM_STATIC       10000
THRESH           14
SCF_CONVERGENCE  8
XC_GRID          000099000590
NL_GRID          1
EDA_CLS_DISP     true
FD_MAT_VEC_PROD  FALSE
$end
