$molecule
1 1
--
1 1
Na     0.000000     0.000000     0.000000
--
0 1
O     -0.782764     1.574336     1.489851
H     -0.365882     2.444567     1.403941
H     -1.011175     1.409415     2.372406
O     -0.098756     1.868143    -1.484671
H      0.699059     2.415994    -1.669660
H     -0.606397     1.831447    -2.328393
O      1.230954    -0.321593     2.079717
H      1.596389    -1.191434     1.961752
H      2.015878     0.284373     2.134339
O     -1.145709    -1.300220    -1.924777
H     -1.877147    -0.797909    -2.151236
H     -1.485771    -2.184237    -1.927249
O      1.838755    -0.607862    -1.272790
H      1.384497    -0.352534    -2.065372
H      2.683776    -0.133099    -1.228283
$end

$rem
JOBTYPE          eda
EDA2             1
METHOD           wB97M-V
BASIS            def2-TZVPPD
SYMMETRY         false
MEM_TOTAL        50000
MEM_STATIC       10000
THRESH           14
SCF_CONVERGENCE  8
XC_GRID          000099000590
NL_GRID          1
EDA_CLS_DISP     true
FD_MAT_VEC_PROD  FALSE
$end
