$molecule
1 1
--
1 1
Na     0.000000     0.000000     0.000000
--
0 1
O      2.442818    -0.818335    -0.280039
H      2.662756    -1.105563    -1.187076
H      3.208163    -0.351618     0.190231
O     -0.058577    -2.340401    -0.318056
H     -0.112691    -2.261522    -1.308213
H      0.766812    -2.877198    -0.136880
O      0.863805     0.451918     1.955806
H      0.128582     0.541557     2.595334
H      1.459083    -0.217450     2.287615
O     -0.118006     0.999042    -2.213928
H     -0.295160     0.203419    -2.715433
H     -0.977633     1.399250    -1.948543
O     -2.250881    -0.512047    -0.293423
H     -2.775036    -0.153755     0.439369
H     -2.575489    -1.386135    -0.545203
$end

$rem
JOBTYPE          eda
EDA2             1
METHOD           wB97M-V
BASIS            def2-TZVPPD
SYMMETRY         false
MEM_TOTAL        50000
MEM_STATIC       10000
THRESH           14
SCF_CONVERGENCE  8
XC_GRID          000099000590
NL_GRID          1
EDA_CLS_DISP     true
FD_MAT_VEC_PROD  FALSE
$end
