$molecule
1 1
--
1 1
Na     0.000000     0.000000     0.000000
--
0 1
O      0.897942     0.232779    -2.242681
H      0.375770     0.945152    -2.637263
H      1.742548     0.701814    -2.136948
O     -0.526370    -2.247938    -0.113789
H     -0.067939    -2.929889     0.403156
H     -1.121253    -2.676460    -0.712395
O      0.965071     2.227927    -0.066810
H      1.977096     2.201242     0.110202
H      0.828364     2.723446    -0.874262
O     -0.282618     0.653366     2.269494
H     -1.091358     0.346471     2.688083
H      0.398640     0.607206     2.959686
$end

$rem
JOBTYPE          eda
EDA2             1
METHOD           wB97M-V
BASIS            def2-TZVPPD
SYMMETRY         false
MEM_TOTAL        50000
MEM_STATIC       10000
THRESH           14
SCF_CONVERGENCE  8
XC_GRID          000099000590
NL_GRID          1
EDA_CLS_DISP     true
FD_MAT_VEC_PROD  FALSE
$end
