$molecule
1 1
--
1 1
Na     0.000000     0.000000     0.000000
--
0 1
O      1.661844     0.842701    -1.497041
H      2.528080     0.377121    -1.307093
H      1.848781     1.779490    -1.584275
O     -0.087779     2.077226     1.056665
H      0.723586     2.252445     1.568366
H     -0.229253     2.684807     0.350873
O     -0.986073    -2.138878    -0.877046
H     -0.792585    -1.599887    -1.687093
H     -0.537496    -2.949143    -1.090109
O     -1.993529     0.705204    -1.045757
H     -2.712929     0.142744    -1.464515
H     -2.466013     1.376847    -0.624703
O      2.026165    -1.165386     0.465272
H      2.085392    -1.934949     1.021382
H      2.008320    -1.517727    -0.446427
$end

$rem
JOBTYPE          eda
EDA2             1
METHOD           wB97M-V
BASIS            def2-TZVPPD
SYMMETRY         false
MEM_TOTAL        50000
MEM_STATIC       10000
THRESH           14
SCF_CONVERGENCE  8
XC_GRID          000099000590
NL_GRID          1
EDA_CLS_DISP     true
FD_MAT_VEC_PROD  FALSE
$end
