$molecule
1 1
--
1 1
Na     0.000000     0.000000     0.000000
--
0 1
O      0.659986    -2.040507     0.606036
H      0.158925    -2.823573     0.524427
H      1.510866    -2.288362     0.337845
O      2.115452     0.634802     0.818018
H      2.351575     1.571131     0.886082
H      2.064804     0.316408     1.680790
O     -2.136022     0.705726    -0.204914
H     -2.636726     0.821809    -1.022408
H     -2.660104     0.011381     0.299743
$end

$rem
JOBTYPE          eda
EDA2             1
METHOD           wB97M-V
BASIS            def2-TZVPPD
SYMMETRY         false
MEM_TOTAL        50000
MEM_STATIC       10000
THRESH           14
SCF_CONVERGENCE  8
XC_GRID          000099000590
NL_GRID          1
EDA_CLS_DISP     true
FD_MAT_VEC_PROD  FALSE
$end
