$molecule
1 1
--
1 1
Na     0.000000     0.000000     0.000000
--
0 1
O      0.696918    -1.921312     0.995276
H      0.017441    -2.540067     1.231161
H      1.089320    -1.653426     1.863350
O     -0.113164     1.265055     1.982920
H     -0.330778     2.212308     2.012355
H      0.411205     1.113647     2.756034
O     -0.095172     2.270223    -1.051898
H      0.755125     2.726212    -0.865472
H     -0.442846     2.607254    -1.863955
O     -0.540610    -1.206576    -2.092771
H     -0.009866    -2.038275    -1.946300
H     -1.328298    -1.540327    -2.427343
$end

$rem
JOBTYPE          eda
EDA2             1
METHOD           wB97M-V
BASIS            def2-TZVPPD
SYMMETRY         false
MEM_TOTAL        50000
MEM_STATIC       10000
THRESH           14
SCF_CONVERGENCE  8
XC_GRID          000099000590
NL_GRID          1
EDA_CLS_DISP     true
FD_MAT_VEC_PROD  FALSE
$end
