$molecule
1 1
--
1 1
Na     0.000000     0.000000     0.000000
--
0 1
O      0.708023    -1.342751    -1.859325
H      0.651312    -1.530173    -2.824257
H      0.765287    -2.234127    -1.494177
O      1.966844     1.359311     0.168930
H      2.774677     1.014819     0.464956
H      2.154278     2.048941    -0.513915
O      1.251839    -1.361885     1.616700
H      1.002389    -2.318327     1.850238
H      2.110395    -1.505860     1.250054
O     -1.064373     1.917554    -1.138065
H     -1.512374     2.639764    -0.689674
H     -1.757728     1.278248    -1.399230
O     -2.229190    -0.753886     0.938174
H     -2.626923    -1.541755     0.554601
H     -2.610605     0.056120     0.627425
$end

$rem
JOBTYPE          eda
EDA2             1
METHOD           wB97M-V
BASIS            def2-TZVPPD
SYMMETRY         false
MEM_TOTAL        50000
MEM_STATIC       10000
THRESH           14
SCF_CONVERGENCE  8
XC_GRID          000099000590
NL_GRID          1
EDA_CLS_DISP     true
FD_MAT_VEC_PROD  FALSE
$end
