$molecule
1 1
--
1 1
Na     0.000000     0.000000     0.000000
--
0 1
O     -0.846206     1.202595     1.854346
H     -1.394373     1.995479     2.024959
H     -0.648149     0.790331     2.691139
O     -1.309742     1.323778    -1.628410
H     -1.163522     2.267977    -1.422263
H     -1.147540     1.263131    -2.577035
O      1.237480    -1.823391     0.446021
H      0.963790    -2.734554     0.597322
H      2.174011    -1.658736     0.605497
O     -1.574568    -1.883367    -0.384367
H     -1.498784    -2.289933    -1.277612
H     -2.507560    -1.716692    -0.387422
$end

$rem
JOBTYPE          eda
EDA2             1
METHOD           wB97M-V
BASIS            def2-TZVPPD
SYMMETRY         false
MEM_TOTAL        50000
MEM_STATIC       10000
THRESH           14
SCF_CONVERGENCE  8
XC_GRID          000099000590
NL_GRID          1
EDA_CLS_DISP     true
FD_MAT_VEC_PROD  FALSE
$end
