$molecule
1 1
--
1 1
Na     0.000000     0.000000     0.000000
--
0 1
O     -0.763534     0.932846     2.231461
H     -0.733128     1.900005     2.285331
H     -0.178159     0.502091     2.866138
O      0.452399     2.241951    -0.962680
H      1.205593     2.615208    -0.515886
H      0.800151     2.215705    -1.892096
O      0.346113    -2.463872     0.347284
H      0.268206    -3.107115    -0.361290
H     -0.089641    -3.005871     1.016265
O      2.050775    -0.213605    -1.193701
H      2.004919    -1.173998    -1.292082
H      2.563798    -0.024846    -0.341802
O     -1.677611    -0.559730    -1.506099
H     -2.457862    -0.155870    -2.009591
H     -1.026711    -0.660387    -2.183118
$end

$rem
JOBTYPE          eda
EDA2             1
METHOD           wB97M-V
BASIS            def2-TZVPPD
SYMMETRY         false
MEM_TOTAL        50000
MEM_STATIC       10000
THRESH           14
SCF_CONVERGENCE  8
XC_GRID          000099000590
NL_GRID          1
EDA_CLS_DISP     true
FD_MAT_VEC_PROD  FALSE
$end
