$molecule
1 1
--
1 1
Na     0.000000     0.000000     0.000000
--
0 1
O      2.497786    -0.242273     0.422092
H      3.049045    -0.461710    -0.372715
H      2.916442     0.393536     1.013630
O     -0.170722     1.880488     1.566801
H     -0.585546     2.675444     1.117741
H     -0.725283     1.778538     2.397862
O     -0.123890    -2.509853    -0.843574
H     -0.312475    -3.220754    -0.195645
H     -0.767002    -2.582567    -1.518445
O     -2.372716     0.104252     0.086632
H     -3.016397     0.698396     0.520165
H     -2.302894    -0.639156     0.705936
$end

$rem
JOBTYPE          eda
EDA2             1
METHOD           wB97M-V
BASIS            def2-TZVPPD
SYMMETRY         false
MEM_TOTAL        50000
MEM_STATIC       10000
THRESH           14
SCF_CONVERGENCE  8
XC_GRID          000099000590
NL_GRID          1
EDA_CLS_DISP     true
FD_MAT_VEC_PROD  FALSE
$end
