$molecule
1 1
--
1 1
Na     0.000000     0.000000     0.000000
--
0 1
O     -0.835240     0.473484     2.119495
H     -0.454693     1.245275     2.586267
H     -1.132360    -0.183285     2.785897
O      0.033539    -2.290098    -0.664363
H     -0.004054    -2.576443     0.261397
H      0.855844    -2.546782    -1.166561
O      1.583864     1.928752    -0.019939
H      1.499354     1.829133    -1.014737
H      1.387146     2.888641     0.263931
$end

$rem
JOBTYPE          eda
EDA2             1
METHOD           wB97M-V
BASIS            def2-TZVPPD
SYMMETRY         false
MEM_TOTAL        50000
MEM_STATIC       10000
THRESH           14
SCF_CONVERGENCE  8
XC_GRID          000099000590
NL_GRID          1
EDA_CLS_DISP     true
FD_MAT_VEC_PROD  FALSE
$end
