$molecule
1 1
--
1 1
Na     0.000000     0.000000     0.000000
--
0 1
O     -2.517737    -0.044737    -0.085663
H     -3.125824    -0.331550     0.584585
H     -3.129699     0.377416    -0.724333
O      2.465683     0.516957    -0.150294
H      2.739106     0.958987    -0.927177
H      2.451782     1.135025     0.576683
O     -0.121149    -0.310658    -2.292460
H     -0.296325    -1.265691    -2.370924
H      0.649829    -0.216062    -2.847853
O      0.358147     0.856708     2.301374
H      0.939411     1.103103     2.980068
H     -0.519149     1.038533     2.680292
O      0.057029    -2.251503     0.686124
H      0.872420    -2.539387     0.293641
H     -0.333279    -3.125313     0.756646
$end

$rem
JOBTYPE          eda
EDA2             1
METHOD           wB97M-V
BASIS            def2-TZVPPD
SYMMETRY         false
MEM_TOTAL        50000
MEM_STATIC       10000
THRESH           14
SCF_CONVERGENCE  8
XC_GRID          000099000590
NL_GRID          1
EDA_CLS_DISP     true
FD_MAT_VEC_PROD  FALSE
$end
