$molecule
1 1
--
1 1
Na     0.000000     0.000000     0.000000
--
0 1
O      0.750555     2.441534    -0.170757
H      0.148617     2.870969    -0.807058
H      0.358211     2.667139     0.740228
O      1.251321     0.152119     2.082513
H      1.280918    -0.781132     2.220682
H      0.570564     0.591799     2.711229
O     -0.302086    -0.400122    -2.302121
H     -0.982672    -0.980944    -2.721235
H      0.585698    -0.559537    -2.600255
O     -1.803909     0.577099     1.492035
H     -2.609777     1.083098     1.230541
H     -1.668404     0.630768     2.471206
O      0.447066    -2.192510    -0.124007
H      0.847688    -2.383423    -0.929975
H     -0.452703    -2.381137    -0.326958
$end

$rem
JOBTYPE          eda
EDA2             1
METHOD           wB97M-V
BASIS            def2-TZVPPD
SYMMETRY         false
MEM_TOTAL        50000
MEM_STATIC       10000
THRESH           14
SCF_CONVERGENCE  8
XC_GRID          000099000590
NL_GRID          1
EDA_CLS_DISP     true
FD_MAT_VEC_PROD  FALSE
$end
