$molecule
1 1
--
1 1
Na     0.000000     0.000000     0.000000
--
0 1
O      1.123334     2.081258    -0.572008
H      1.216698     2.687495     0.190794
H      1.959598     2.117506    -1.056213
O      2.258056    -1.030970     0.237516
H      2.691734    -0.383332     0.814519
H      2.334528    -0.786860    -0.703473
O     -0.907363    -1.944297     0.044354
H     -1.273537    -2.411135    -0.753502
H     -1.634033    -1.924246     0.641980
O     -2.039574     0.663792    -0.777922
H     -1.939320     1.285531    -1.453140
H     -2.627457    -0.060953    -1.090527
$end

$rem
JOBTYPE          eda
EDA2             1
METHOD           wB97M-V
BASIS            def2-TZVPPD
SYMMETRY         false
MEM_TOTAL        50000
MEM_STATIC       10000
THRESH           14
SCF_CONVERGENCE  8
XC_GRID          000099000590
NL_GRID          1
EDA_CLS_DISP     true
FD_MAT_VEC_PROD  FALSE
$end
