$molecule
1 1
--
1 1
Na     0.000000     0.000000     0.000000
--
0 1
O      0.056153    -1.593017    -1.588907
H     -0.422819    -1.289136    -2.393865
H     -0.138369    -2.503753    -1.378373
O      1.408983    -1.281787     1.277252
H      0.964298    -1.922010     1.792464
H      1.991702    -0.868205     1.920136
O     -1.809137     1.083746    -1.258510
H     -1.679558     1.887221    -1.716686
H     -2.630287     1.152332    -0.772428
O      1.718985     1.693094    -0.096897
H      2.245607     1.434703     0.635177
H      1.263609     2.472586     0.090106
O     -1.030025     1.048290     2.059206
H     -0.379602     1.376428     2.604273
H     -1.526575     0.492561     2.662498
$end

$rem
JOBTYPE          eda
EDA2             1
METHOD           wB97M-V
BASIS            def2-TZVPPD
SYMMETRY         false
MEM_TOTAL        50000
MEM_STATIC       10000
THRESH           14
SCF_CONVERGENCE  8
XC_GRID          000099000590
NL_GRID          1
EDA_CLS_DISP     true
FD_MAT_VEC_PROD  FALSE
$end
