$molecule
1 1
--
1 1
K      0.000000     0.000000     0.000000
--
0 1
O     -2.788678     0.406415     0.653974
H     -3.199869     0.958424    -0.018216
H     -2.648871     0.994298     1.339656
O     -0.538075    -0.007256    -2.587985
H     -1.178974     0.573219    -3.036130
H     -0.622551    -0.842304    -3.100694
O      1.217666    -2.504639    -1.246697
H      2.075220    -2.521579    -1.694555
H      1.096683    -3.374284    -0.758390
O     -0.231617     1.394607     2.438855
H     -0.561266     2.289091     2.589398
H      0.557946     1.311939     2.977921
O      2.575424     0.453046    -0.769981
H      2.519390    -0.471796    -0.995216
H      3.471222     0.584527    -0.443942
$end

$rem
JOBTYPE          eda
EDA2             1
METHOD           wB97M-V
BASIS            def2-TZVPPD
SYMMETRY         false
MEM_TOTAL        50000
MEM_STATIC       10000
THRESH           14
SCF_CONVERGENCE  8
XC_GRID          000099000590
NL_GRID          1
EDA_CLS_DISP     true
FD_MAT_VEC_PROD  FALSE
$end
