$molecule
1 1
--
1 1
K      0.000000     0.000000     0.000000
--
0 1
O      2.272527     0.834421     1.230172
H      3.156809     0.859433     1.570041
H      1.902975     1.732978     1.301596
O      0.185748     2.476480    -0.876487
H      0.842743     2.672524    -1.589365
H     -0.626338     3.014926    -1.032709
O     -2.131224    -1.837640     0.690354
H     -1.873645    -2.481649     0.070656
H     -3.071086    -1.700625     0.593753
O     -0.751067    -0.447311    -2.432427
H     -0.567099     0.174959    -3.128552
H     -1.309564    -1.096906    -2.897071
O     -0.308389    -1.371161     2.595177
H     -1.066393    -1.718449     2.157600
H     -0.406916    -1.685150     3.506362
$end

$rem
JOBTYPE          eda
EDA2             1
METHOD           wB97M-V
BASIS            def2-TZVPPD
SYMMETRY         false
MEM_TOTAL        50000
MEM_STATIC       10000
THRESH           14
SCF_CONVERGENCE  8
XC_GRID          000099000590
NL_GRID          1
EDA_CLS_DISP     true
FD_MAT_VEC_PROD  FALSE
$end
