$molecule
1 1
--
1 1
K      0.000000     0.000000     0.000000
--
0 1
O      2.102428     1.386670    -1.029358
H      1.785708     1.982325    -1.735266
H      3.054769     1.229330    -1.149632
O     -1.387566    -2.526538    -0.245913
H     -2.303481    -2.162204    -0.161558
H     -1.339001    -3.413108     0.108756
O     -2.609996    -0.019873     0.813235
H     -2.825722     0.803265     1.321763
H     -3.412621    -0.373229     0.472192
O      0.543936     1.404111     2.215947
H      1.365283     1.832211     2.534358
H     -0.163281     1.564772     2.878369
O      1.928879    -2.013912    -0.830288
H      1.588446    -2.627051    -1.468844
H      2.543503    -1.446099    -1.325233
O     -1.015672     1.980366    -1.649540
H     -0.491249     2.318255    -2.396721
H     -1.304712     2.818630    -1.072400
$end

$rem
JOBTYPE          eda
EDA2             1
METHOD           wB97M-V
BASIS            def2-TZVPPD
SYMMETRY         false
MEM_TOTAL        50000
MEM_STATIC       10000
THRESH           14
SCF_CONVERGENCE  8
XC_GRID          000099000590
NL_GRID          1
EDA_CLS_DISP     true
FD_MAT_VEC_PROD  FALSE
$end
