$molecule
1 1
--
1 1
K      0.000000     0.000000     0.000000
--
0 1
O     -2.137032    -0.856625     1.512180
H     -1.868986    -0.256897     2.167979
H     -2.239988    -1.648355     2.041290
O      2.175127     1.925803    -0.413797
H      1.709840     2.569824    -0.952341
H      2.889234     1.626517    -1.020393
O      0.141167     0.967816     2.459987
H     -0.589109     1.582427     2.558548
H      0.912326     1.572431     2.509376
O     -1.688514     1.833831    -0.432819
H     -2.264011     1.940198     0.309424
H     -2.154571     1.891732    -1.244451
O      1.446652    -0.632454    -2.619546
H      2.280514    -0.166052    -2.786880
H      1.538590    -1.544524    -2.934943
O      2.182475    -1.748894     0.845704
H      2.180246    -2.541209     0.250924
H      2.896339    -1.190755     0.512360
$end

$rem
JOBTYPE          eda
EDA2             1
METHOD           wB97M-V
BASIS            def2-TZVPPD
SYMMETRY         false
MEM_TOTAL        50000
MEM_STATIC       10000
THRESH           14
SCF_CONVERGENCE  8
XC_GRID          000099000590
NL_GRID          1
EDA_CLS_DISP     true
FD_MAT_VEC_PROD  FALSE
$end
