$molecule
1 1
--
1 1
K      0.000000     0.000000     0.000000
--
0 1
O      0.193604     2.456516    -0.745826
H      1.027191     2.951756    -0.793227
H     -0.562560     3.072946    -0.858144
O     -1.232242    -2.233013     0.683210
H     -1.372938    -2.937211    -0.025695
H     -1.366802    -2.615033     1.557785
O      2.594873     0.295506     0.744422
H      2.858332     1.115974     1.121168
H      3.402181    -0.102967     0.308189
O      0.305749    -1.494227    -2.346204
H     -0.487855    -1.900339    -2.732699
H      0.656706    -2.159673    -1.779934
O      0.354684     0.631866     2.696786
H      0.743905     1.438358     3.041235
H      0.890030    -0.053433     3.042617
O     -2.758490     0.097649    -0.258778
H     -3.113201     0.864523    -0.650413
H     -2.526952     0.402207     0.644990
$end

$rem
JOBTYPE          eda
EDA2             1
METHOD           wB97M-V
BASIS            def2-TZVPPD
SYMMETRY         false
MEM_TOTAL        50000
MEM_STATIC       10000
THRESH           14
SCF_CONVERGENCE  8
XC_GRID          000099000590
NL_GRID          1
EDA_CLS_DISP     true
FD_MAT_VEC_PROD  FALSE
$end
