$molecule
1 1
--
1 1
K      0.000000     0.000000     0.000000
--
0 1
O     -1.997620    -2.162061    -0.813178
H     -2.773802    -1.606737    -0.549995
H     -1.592061    -2.558739    -0.032556
O      0.414858    -0.225799    -2.631086
H      1.352700    -0.013745    -2.767381
H      0.050193    -0.688976    -3.401864
O     -2.631714     0.983286    -0.637732
H     -3.404075     1.007670    -0.141584
H     -2.832941     1.458279    -1.450706
O      1.202232    -0.677975     2.440207
H      2.075392    -1.063868     2.278000
H      0.927402    -1.109896     3.256085
O     -0.234521    -2.746344     1.303637
H     -0.487511    -2.096140     1.982125
H      0.699833    -2.781795     1.295536
O      0.306745     2.542586     1.554188
H      0.463644     2.471048     2.452764
H     -0.325900     3.267043     1.361577
$end

$rem
JOBTYPE          eda
EDA2             1
METHOD           wB97M-V
BASIS            def2-TZVPPD
SYMMETRY         false
MEM_TOTAL        50000
MEM_STATIC       10000
THRESH           14
SCF_CONVERGENCE  8
XC_GRID          000099000590
NL_GRID          1
EDA_CLS_DISP     true
FD_MAT_VEC_PROD  FALSE
$end
