$molecule
1 1
--
1 1
K      0.000000     0.000000     0.000000
--
0 1
O     -2.378824    -0.553695    -1.241651
H     -2.664634     0.170642    -1.832911
H     -3.267881    -0.958953    -1.026544
O     -0.572456     1.699591    -1.947811
H      0.254456     1.982503    -2.411827
H     -1.309166     1.752655    -2.525546
O      1.126668    -1.511622     1.935966
H      0.956395    -2.429284     2.079445
H      0.857351    -1.103993     2.793336
O     -1.604414     0.849184     2.083256
H     -2.481291     0.626327     1.722143
H     -1.459611     0.357911     2.901958
$end

$rem
JOBTYPE          eda
EDA2             1
METHOD           wB97M-V
BASIS            def2-TZVPPD
SYMMETRY         false
MEM_TOTAL        50000
MEM_STATIC       10000
THRESH           14
SCF_CONVERGENCE  8
XC_GRID          000099000590
NL_GRID          1
EDA_CLS_DISP     true
FD_MAT_VEC_PROD  FALSE
$end
