$molecule
1 1
--
1 1
K      0.000000     0.000000     0.000000
--
0 1
O     -1.476491    -0.756259     2.290019
H     -1.759686    -1.376309     1.544947
H     -2.291192    -0.305429     2.556178
O     -2.631532     1.181732    -0.243706
H     -2.245032     1.740452    -0.949982
H     -2.984989     1.700291     0.504715
O      1.975492    -0.044738    -1.728567
H      2.884251    -0.090974    -1.517372
H      1.820966    -0.995882    -1.782993
O      2.397673    -0.356089     1.291352
H      2.935808    -0.353847     0.513619
H      2.540992     0.514317     1.727057
O     -0.114464     2.275923     1.666919
H     -0.924524     2.782367     1.384837
H      0.519910     2.828453     2.078350
O     -1.132358    -0.800595    -2.392425
H     -1.671831    -1.510047    -1.934175
H     -1.222263    -0.893060    -3.357476
$end

$rem
JOBTYPE          eda
EDA2             1
METHOD           wB97M-V
BASIS            def2-TZVPPD
SYMMETRY         false
MEM_TOTAL        50000
MEM_STATIC       10000
THRESH           14
SCF_CONVERGENCE  8
XC_GRID          000099000590
NL_GRID          1
EDA_CLS_DISP     true
FD_MAT_VEC_PROD  FALSE
$end
