$molecule
1 1
--
1 1
K      0.000000     0.000000     0.000000
--
0 1
O      1.380814     0.870128    -2.552071
H      0.720240     1.596362    -2.443970
H      1.177395     0.252244    -3.293213
O      1.273503     1.903801     1.295069
H      1.989230     1.514260     1.865592
H      0.801927     2.486720     1.867390
O     -2.462575     1.133906     0.643205
H     -2.766838     0.224028     0.624927
H     -2.781846     1.533607    -0.169164
O     -2.169681    -1.506407    -1.529652
H     -2.399596    -2.128795    -2.205315
H     -2.797931    -0.796605    -1.523323
O      1.163535    -1.097883     2.056202
H      2.105116    -0.983745     2.128536
H      0.817248    -1.314531     2.991563
$end

$rem
JOBTYPE          eda
EDA2             1
METHOD           wB97M-V
BASIS            def2-TZVPPD
SYMMETRY         false
MEM_TOTAL        50000
MEM_STATIC       10000
THRESH           14
SCF_CONVERGENCE  8
XC_GRID          000099000590
NL_GRID          1
EDA_CLS_DISP     true
FD_MAT_VEC_PROD  FALSE
$end
