$molecule
1 1
--
1 1
K      0.000000     0.000000     0.000000
--
0 1
O     -0.347802    -2.893565    -0.197304
H     -0.264219    -2.627410    -1.107839
H     -1.076793    -3.520369    -0.191568
O      0.677953     2.028113    -2.098824
H      1.086568     2.053260    -2.956022
H     -0.287647     1.928353    -2.270876
O      0.133021    -0.422807     2.580598
H      0.877410    -0.317211     3.203899
H     -0.629250     0.024130     3.083095
O     -2.438966     0.372415     0.851527
H     -2.595398     1.157685     1.350948
H     -3.271474     0.106554     0.425933
O     -2.066921     1.281430    -1.668738
H     -2.570671     0.992410    -2.390640
H     -2.616813     1.957975    -1.327306
O      0.369724    -1.327390    -2.368648
H     -0.386802    -1.039991    -2.929204
H      1.195348    -0.840736    -2.656566
$end

$rem
JOBTYPE          eda
EDA2             1
METHOD           wB97M-V
BASIS            def2-TZVPPD
SYMMETRY         false
MEM_TOTAL        50000
MEM_STATIC       10000
THRESH           14
SCF_CONVERGENCE  8
XC_GRID          000099000590
NL_GRID          1
EDA_CLS_DISP     true
FD_MAT_VEC_PROD  FALSE
$end
