$molecule
1 1
--
1 1
K      0.000000     0.000000     0.000000
--
0 1
O     -0.410929    -0.700784    -2.509863
H     -1.217513    -1.219559    -2.665649
H     -0.164264    -0.548002    -3.391802
O      0.364162     2.737792     0.615970
H     -0.368150     3.382202     0.757426
H      0.419133     2.301238     1.419304
O     -1.302168    -1.379093     2.269078
H     -1.734333    -1.173294     3.111865
H     -1.340808    -2.327373     2.231571
O      2.554230    -0.782247     0.698580
H      2.890378    -1.647175     0.845380
H      3.241882    -0.204019     0.218312
$end

$rem
JOBTYPE          eda
EDA2             1
METHOD           wB97M-V
BASIS            def2-TZVPPD
SYMMETRY         false
MEM_TOTAL        50000
MEM_STATIC       10000
THRESH           14
SCF_CONVERGENCE  8
XC_GRID          000099000590
NL_GRID          1
EDA_CLS_DISP     true
FD_MAT_VEC_PROD  FALSE
$end
