$molecule
1 1
--
1 1
K      0.000000     0.000000     0.000000
--
0 1
O     -0.031652     2.144978    -1.608259
H      0.277586     1.427590    -2.192862
H     -1.017221     2.264700    -1.738852
O     -0.788931    -0.740656     2.321277
H     -1.501247    -0.231443     2.705598
H     -0.076222    -0.711789     2.986251
O     -1.974576    -1.628499    -1.490287
H     -2.671600    -1.230877    -0.969768
H     -2.022568    -2.568609    -1.304728
O     -0.874063     1.982276     2.140067
H     -1.510546     2.328273     1.516840
H     -1.133805     2.374863     2.943937
O      2.540164     1.201918     0.024099
H      2.914567     1.138412     0.906595
H      2.914729     2.003474    -0.363718
$end

$rem
JOBTYPE          eda
EDA2             1
METHOD           wB97M-V
BASIS            def2-TZVPPD
SYMMETRY         false
MEM_TOTAL        50000
MEM_STATIC       10000
THRESH           14
SCF_CONVERGENCE  8
XC_GRID          000099000590
NL_GRID          1
EDA_CLS_DISP     true
FD_MAT_VEC_PROD  FALSE
$end
