$molecule
1 1
--
1 1
K      0.000000     0.000000     0.000000
--
0 1
O      0.612876    -1.115935    -2.349051
H      0.426290    -1.552454    -3.196404
H      1.249709    -1.726035    -1.997265
O      0.226950    -1.309350     2.562510
H      0.264022    -0.641943     3.257966
H      1.068749    -1.730800     2.570162
O     -2.056105     0.919747    -1.186773
H     -2.198049     0.297455    -1.925318
H     -2.809767     1.060828    -0.585807
O     -1.976233    -2.079701    -0.110673
H     -1.733104    -3.050987    -0.116702
H     -2.703697    -1.948167    -0.750612
O      1.852186     1.592652     1.468527
H      2.464721     2.245763     1.040167
H      1.990939     1.633926     2.445297
O      2.746451    -1.160995     0.084226
H      3.055897    -0.685917    -0.671043
H      3.443294    -1.731569     0.452839
$end

$rem
JOBTYPE          eda
EDA2             1
METHOD           wB97M-V
BASIS            def2-TZVPPD
SYMMETRY         false
MEM_TOTAL        50000
MEM_STATIC       10000
THRESH           14
SCF_CONVERGENCE  8
XC_GRID          000099000590
NL_GRID          1
EDA_CLS_DISP     true
FD_MAT_VEC_PROD  FALSE
$end
