$molecule
1 1
--
1 1
K      0.000000     0.000000     0.000000
--
0 1
O      1.649798    -2.297513     0.068375
H      0.966347    -3.009432     0.268920
H      2.415982    -2.455505     0.666808
O     -1.651512     1.316542     1.618952
H     -2.531349     1.240121     2.010840
H     -1.216179     2.096571     2.037483
O     -2.184128    -0.807746    -0.773576
H     -2.827219    -1.529499    -0.681704
H     -2.210682    -0.412574    -1.661052
O      1.487946     1.247924     2.225563
H      1.142883     1.150397     3.114392
H      2.490161     1.303890     2.274317
$end

$rem
JOBTYPE          eda
EDA2             1
METHOD           wB97M-V
BASIS            def2-TZVPPD
SYMMETRY         false
MEM_TOTAL        50000
MEM_STATIC       10000
THRESH           14
SCF_CONVERGENCE  8
XC_GRID          000099000590
NL_GRID          1
EDA_CLS_DISP     true
FD_MAT_VEC_PROD  FALSE
$end
