$molecule
1 1
--
1 1
K      0.000000     0.000000     0.000000
--
0 1
O     -0.210079     2.249880    -1.822263
H     -0.999905     2.747073    -2.188873
H      0.437892     2.910845    -1.624153
O     -0.450115    -1.345599    -2.334771
H     -1.257746    -1.369664    -2.796646
H     -0.004945    -2.214472    -2.565938
O      0.686051     1.202628     2.117488
H      1.269892     0.636475     2.686024
H      0.056161     1.684988     2.688453
$end

$rem
JOBTYPE          eda
EDA2             1
METHOD           wB97M-V
BASIS            def2-TZVPPD
SYMMETRY         false
MEM_TOTAL        50000
MEM_STATIC       10000
THRESH           14
SCF_CONVERGENCE  8
XC_GRID          000099000590
NL_GRID          1
EDA_CLS_DISP     true
FD_MAT_VEC_PROD  FALSE
$end
