$molecule
1 1
--
1 1
K      0.000000     0.000000     0.000000
--
0 1
O     -1.065191    -0.359975    -2.461163
H     -1.794196    -0.828061    -2.830220
H     -1.027565     0.480586    -2.947244
O      2.344028     1.678726    -0.213882
H      3.157394     1.389741    -0.585666
H      2.557494     1.811841     0.674913
O     -1.246221     2.415696    -0.621119
H     -2.238963     2.335390    -0.711467
H     -0.854818     2.401486    -1.478482
O     -1.890709     0.266806     2.144480
H     -1.944298     1.042797     2.694641
H     -2.715672     0.216960     1.683755
$end

$rem
JOBTYPE          eda
EDA2             1
METHOD           wB97M-V
BASIS            def2-TZVPPD
SYMMETRY         false
MEM_TOTAL        50000
MEM_STATIC       10000
THRESH           14
SCF_CONVERGENCE  8
XC_GRID          000099000590
NL_GRID          1
EDA_CLS_DISP     true
FD_MAT_VEC_PROD  FALSE
$end
