$molecule
1 1
--
1 1
K      0.000000     0.000000     0.000000
--
0 1
O     -2.854442     0.584840    -0.122179
H     -3.265333    -0.153361     0.306368
H     -3.159443     1.375887     0.435029
O      1.793507     2.390251     0.448386
H      1.484797     2.937877    -0.247414
H      2.760113     2.530882     0.485450
O     -0.012318     1.515708    -2.116487
H     -0.444712     1.661309    -2.931489
H      0.234305     2.352957    -1.751290
O     -0.359420    -0.604796     2.633990
H      0.279877    -0.081645     3.137778
H     -0.226378    -1.549243     2.698047
O      2.595565    -1.054409     0.246960
H      2.113393    -1.851888    -0.056301
H      3.361367    -1.381693     0.744870
O      0.402821    -2.381732    -1.341749
H     -0.585953    -2.453448    -1.264600
H      0.751084    -2.951825    -2.024247
$end

$rem
JOBTYPE          eda
EDA2             1
METHOD           wB97M-V
BASIS            def2-TZVPPD
SYMMETRY         false
MEM_TOTAL        50000
MEM_STATIC       10000
THRESH           14
SCF_CONVERGENCE  8
XC_GRID          000099000590
NL_GRID          1
EDA_CLS_DISP     true
FD_MAT_VEC_PROD  FALSE
$end
