$molecule
1 1
--
1 1
K      0.000000     0.000000     0.000000
--
0 1
O      0.681155     2.280734     1.579374
H      1.434766     2.011871     2.145198
H      0.845222     3.254319     1.420636
O     -1.480588    -0.767019     2.170820
H     -1.496644    -0.560012     3.066086
H     -1.412629    -1.742263     2.240040
O      0.032695    -2.723352     0.280396
H     -0.173080    -3.362364    -0.391988
H     -0.080478    -3.178871     1.104535
O     -1.492386    -0.320905    -2.637511
H     -2.319056    -0.727991    -2.799845
H     -1.445518     0.545652    -3.153064
O      1.881515    -0.602297    -1.732872
H      1.948772     0.342778    -2.034686
H      1.337631    -1.036198    -2.474607
$end

$rem
JOBTYPE          eda
EDA2             1
METHOD           wB97M-V
BASIS            def2-TZVPPD
SYMMETRY         false
MEM_TOTAL        50000
MEM_STATIC       10000
THRESH           14
SCF_CONVERGENCE  8
XC_GRID          000099000590
NL_GRID          1
EDA_CLS_DISP     true
FD_MAT_VEC_PROD  FALSE
$end
