$molecule
1 1
--
1 1
K      0.000000     0.000000     0.000000
--
0 1
O     -1.153594    -0.720309    -2.614003
H     -0.939565    -1.499011    -3.168115
H     -1.428502    -0.069507    -3.340308
O      0.490839     2.044895    -1.779473
H      0.093009     2.075515    -2.632645
H      1.033118     2.817953    -1.735977
O      0.208785    -2.782335    -0.500750
H      0.323043    -3.505662     0.135402
H     -0.529939    -3.016266    -1.123982
O      2.316956    -0.886052     1.337491
H      2.440257    -0.662489     2.291396
H      3.000342    -0.491984     0.781631
O     -2.584382     0.759511     0.285931
H     -3.046319     0.066787    -0.119632
H     -2.689115     0.611750     1.240907
O     -0.643833    -1.535240     2.409017
H     -0.768431    -2.498004     2.659473
H      0.031223    -1.193681     2.975804
$end

$rem
JOBTYPE          eda
EDA2             1
METHOD           wB97M-V
BASIS            def2-TZVPPD
SYMMETRY         false
MEM_TOTAL        50000
MEM_STATIC       10000
THRESH           14
SCF_CONVERGENCE  8
XC_GRID          000099000590
NL_GRID          1
EDA_CLS_DISP     true
FD_MAT_VEC_PROD  FALSE
$end
