$molecule
1 1
--
1 1
K      0.000000     0.000000     0.000000
--
0 1
O     -2.635555    -0.276395     1.367629
H     -2.296026    -0.337391     2.286535
H     -3.490352    -0.708308     1.251761
O      2.756429    -0.515741    -0.495604
H      3.405562    -0.731420     0.158018
H      2.773624     0.411513    -0.812172
O      0.329265     0.299331    -2.532931
H      0.307016    -0.242145    -3.289589
H      0.466834     1.212367    -2.850108
O      0.201952     1.346168     2.493417
H     -0.355586     2.214469     2.733889
H     -0.029793     0.631912     3.061578
O     -1.125899    -2.279212    -1.110246
H     -1.831871    -2.461089    -1.782069
H     -0.507812    -3.042224    -1.253317
$end

$rem
JOBTYPE          eda
EDA2             1
METHOD           wB97M-V
BASIS            def2-TZVPPD
SYMMETRY         false
MEM_TOTAL        50000
MEM_STATIC       10000
THRESH           14
SCF_CONVERGENCE  8
XC_GRID          000099000590
NL_GRID          1
EDA_CLS_DISP     true
FD_MAT_VEC_PROD  FALSE
$end
