$molecule
1 1
--
1 1
K      0.000000     0.000000     0.000000
--
0 1
O     -0.765719     1.087653     2.167467
H     -0.366710     0.618826     2.934654
H     -0.375078     1.956726     2.261313
O      0.783235     0.249805    -2.652016
H      0.810836     1.128177    -3.198673
H      1.673506    -0.176047    -2.638363
O      1.949027     1.313741     0.855188
H      2.577772     1.693311     0.164076
H      1.560359     2.078643     1.367190
O     -1.376289    -2.236190     1.521680
H     -1.917950    -2.202670     2.374185
H     -1.844766    -2.998636     1.080903
O     -1.599232     1.945142    -1.540209
H     -0.917197     2.521554    -1.161089
H     -1.775862     2.352459    -2.354892
$end

$rem
JOBTYPE          eda
EDA2             1
METHOD           wB97M-V
BASIS            def2-TZVPPD
SYMMETRY         false
MEM_TOTAL        50000
MEM_STATIC       10000
THRESH           14
SCF_CONVERGENCE  8
XC_GRID          000099000590
NL_GRID          1
EDA_CLS_DISP     true
FD_MAT_VEC_PROD  FALSE
$end
