$molecule
1 1
--
1 1
K      0.000000     0.000000     0.000000
--
0 1
O      0.577144     2.541320     0.000600
H      1.213804     2.744613     0.747683
H     -0.094201     3.104652     0.284161
O     -2.116734    -0.221233    -1.605170
H     -2.311595     0.706106    -1.826664
H     -1.611838    -0.483958    -2.409399
O     -0.049892    -1.890371     2.061110
H      0.247910    -2.821836     2.137168
H     -0.958496    -1.910780     2.339261
O      1.916245     0.015119    -1.956164
H      2.821662     0.235522    -1.746799
H      1.929350    -0.944808    -2.052363
$end

$rem
JOBTYPE          eda
EDA2             1
METHOD           wB97M-V
BASIS            def2-TZVPPD
SYMMETRY         false
MEM_TOTAL        50000
MEM_STATIC       10000
THRESH           14
SCF_CONVERGENCE  8
XC_GRID          000099000590
NL_GRID          1
EDA_CLS_DISP     true
FD_MAT_VEC_PROD  FALSE
$end
