$molecule
1 1
--
1 1
K      0.000000     0.000000     0.000000
--
0 1
O     -1.249687    -2.212479     0.364535
H     -2.209513    -2.240427     0.194993
H     -1.217501    -2.449956     1.323026
O     -0.848192     2.494283    -0.608818
H     -1.728060     2.614033    -0.331862
H     -0.360729     3.287164    -0.498154
O     -0.354819     1.551553     2.420581
H      0.571155     1.863402     2.412682
H     -0.844927     2.239234     1.996701
O      1.824471     1.246239    -1.492036
H      2.780868     1.330448    -1.240610
H      1.596086     1.819060    -2.215030
$end

$rem
JOBTYPE          eda
EDA2             1
METHOD           wB97M-V
BASIS            def2-TZVPPD
SYMMETRY         false
MEM_TOTAL        50000
MEM_STATIC       10000
THRESH           14
SCF_CONVERGENCE  8
XC_GRID          000099000590
NL_GRID          1
EDA_CLS_DISP     true
FD_MAT_VEC_PROD  FALSE
$end
