$molecule
1 1
--
1 1
K      0.000000     0.000000     0.000000
--
0 1
O      1.395321     2.485796    -0.499111
H      0.475724     2.530364    -0.908150
H      1.541025     3.296659     0.059292
O     -0.298366     0.277828    -2.884288
H     -1.052425    -0.252557    -3.266455
H     -0.007761     0.938512    -3.499209
O     -0.844454     0.705415     2.485358
H     -0.439561     1.442536     2.982417
H     -0.765232    -0.044769     3.073039
O      2.206718    -0.416213    -1.515557
H      2.624132    -1.306624    -1.434775
H      1.710832    -0.523339    -2.322752
O      2.287985     0.406779     1.536207
H      1.848703     0.878967     2.243779
H      2.356853     1.050663     0.803187
O     -0.926946    -2.528131    -0.885140
H     -0.638585    -2.814555    -0.002462
H     -0.175227    -2.863224    -1.473137
O     -2.524902     0.657056     0.276186
H     -2.345141     0.830225     1.144007
H     -3.348189     0.216696     0.083786
$end

$rem
JOBTYPE          eda
EDA2             1
METHOD           wB97M-V
BASIS            def2-TZVPPD
SYMMETRY         false
MEM_TOTAL        50000
MEM_STATIC       10000
THRESH           14
SCF_CONVERGENCE  8
XC_GRID          000099000590
NL_GRID          1
EDA_CLS_DISP     true
FD_MAT_VEC_PROD  FALSE
$end
