$molecule
1 1
--
1 1
K      0.000000     0.000000     0.000000
--
0 1
O      1.561623    -1.801787     1.465392
H      1.495913    -1.409150     2.361074
H      2.405619    -2.025458     1.077899
O     -1.424639    -0.655851     2.090662
H     -0.921701    -0.097964     2.672960
H     -2.396934    -0.579047     2.394294
O     -0.430437    -1.342300    -2.594784
H     -0.028298    -2.177339    -2.869167
H     -0.070011    -0.628832    -3.155245
O      1.871301     1.921050    -0.065534
H      2.359953     2.169210     0.749252
H      2.507104     1.476286    -0.655249
$end

$rem
JOBTYPE          eda
EDA2             1
METHOD           wB97M-V
BASIS            def2-TZVPPD
SYMMETRY         false
MEM_TOTAL        50000
MEM_STATIC       10000
THRESH           14
SCF_CONVERGENCE  8
XC_GRID          000099000590
NL_GRID          1
EDA_CLS_DISP     true
FD_MAT_VEC_PROD  FALSE
$end
