$molecule
1 1
--
1 1
K      0.000000     0.000000     0.000000
--
0 1
O     -0.873977    -0.157326    -2.492460
H     -1.740116    -0.052883    -2.878562
H     -0.273500     0.375994    -3.026061
O      2.608119     0.315616     0.527310
H      3.312820    -0.307262     0.594493
H      2.932642     0.856303    -0.199126
O      0.725977    -2.654096    -0.373484
H      1.317561    -2.978209    -1.023598
H     -0.110315    -3.095978    -0.542861
O     -2.649027    -1.197370     0.324003
H     -2.756447    -1.934451    -0.241219
H     -2.755054    -1.440674     1.244298
O     -1.038712     2.794023    -0.587160
H     -1.259782     2.719630    -1.535356
H     -1.840414     2.377449    -0.164631
$end

$rem
JOBTYPE          eda
EDA2             1
METHOD           wB97M-V
BASIS            def2-TZVPPD
SYMMETRY         false
MEM_TOTAL        50000
MEM_STATIC       10000
THRESH           14
SCF_CONVERGENCE  8
XC_GRID          000099000590
NL_GRID          1
EDA_CLS_DISP     true
FD_MAT_VEC_PROD  FALSE
$end
