$molecule
1 1
--
1 1
K      0.000000     0.000000     0.000000
--
0 1
O     -1.350579    -0.451019    -2.184171
H     -0.828374    -0.405480    -2.959027
H     -2.295838    -0.182448    -2.477727
O      0.811714    -2.953770    -0.024877
H      0.491865    -3.516386     0.715024
H      1.703134    -3.259401    -0.070729
O      1.439502    -0.931900     2.390588
H      1.923833    -1.620427     2.861863
H      0.879775    -0.561656     3.062076
O      2.556752     0.575285    -0.926306
H      2.963771     0.049734    -0.227753
H      2.591393     1.523133    -0.691197
O     -1.229385     2.374053     0.624562
H     -0.903017     3.116669     1.152358
H     -2.153941     2.270777     0.923160
O     -1.464224    -0.338413     2.131283
H     -1.017152    -0.390138     2.970331
H     -2.307745     0.086032     2.373066
$end

$rem
JOBTYPE          eda
EDA2             1
METHOD           wB97M-V
BASIS            def2-TZVPPD
SYMMETRY         false
MEM_TOTAL        50000
MEM_STATIC       10000
THRESH           14
SCF_CONVERGENCE  8
XC_GRID          000099000590
NL_GRID          1
EDA_CLS_DISP     true
FD_MAT_VEC_PROD  FALSE
$end
