$molecule
1 1
--
1 1
K      0.000000     0.000000     0.000000
--
0 1
O     -1.879920     2.131600     0.557926
H     -2.648079     2.548980     0.056049
H     -1.887437     2.455367     1.426203
O      1.152182     1.581044    -1.769112
H      1.909533     1.935900    -1.263555
H      1.466093     1.448690    -2.624702
O      0.223121    -2.711640     0.645294
H      0.828753    -2.906869     1.403819
H     -0.563140    -3.220153     0.851557
O      1.524854     2.013421     1.098941
H      1.225291     2.922636     1.209810
H      2.238959     2.172119     0.523577
O     -0.474255    -1.111893    -2.327802
H     -1.177610    -1.416111    -2.945593
H      0.329445    -1.642755    -2.406746
O     -2.305451    -0.792312     1.710421
H     -2.440067    -1.648183     2.196214
H     -2.692466    -0.773457     0.838942
$end

$rem
JOBTYPE          eda
EDA2             1
METHOD           wB97M-V
BASIS            def2-TZVPPD
SYMMETRY         false
MEM_TOTAL        50000
MEM_STATIC       10000
THRESH           14
SCF_CONVERGENCE  8
XC_GRID          000099000590
NL_GRID          1
EDA_CLS_DISP     true
FD_MAT_VEC_PROD  FALSE
$end
