$molecule
1 1
--
1 1
K      0.000000     0.000000     0.000000
--
0 1
O      1.718018     0.231702     1.982918
H      2.030510    -0.589138     2.359944
H      1.757650     0.961818     2.605759
O     -1.357838     1.036276    -2.176719
H     -1.862644     1.908415    -2.195129
H     -2.093985     0.377470    -2.470949
O      0.093893    -2.699563    -1.187877
H     -0.368393    -3.368385    -0.686177
H      0.993326    -3.116036    -1.311465
O     -0.782278    -1.864644     1.959905
H     -0.286253    -2.712429     1.908728
H     -1.707732    -2.173103     2.104632
$end

$rem
JOBTYPE          eda
EDA2             1
METHOD           wB97M-V
BASIS            def2-TZVPPD
SYMMETRY         false
MEM_TOTAL        50000
MEM_STATIC       10000
THRESH           14
SCF_CONVERGENCE  8
XC_GRID          000099000590
NL_GRID          1
EDA_CLS_DISP     true
FD_MAT_VEC_PROD  FALSE
$end
