$molecule
1 1
--
1 1
K      0.000000     0.000000     0.000000
--
0 1
O     -2.253676    -1.392416     0.421368
H     -3.137956    -1.215387     0.063811
H     -2.021472    -2.191510    -0.025516
O     -0.318217     0.409348    -2.718643
H      0.311346     1.085045    -3.064275
H     -0.323786    -0.455586    -3.131456
O      1.052869    -1.442679     2.266862
H      1.475362    -2.293476     2.206604
H      1.643426    -0.997578     2.931710
O      0.676884    -2.513134    -0.722992
H     -0.026309    -3.165808    -0.916704
H      1.255836    -2.918566    -0.007824
$end

$rem
JOBTYPE          eda
EDA2             1
METHOD           wB97M-V
BASIS            def2-TZVPPD
SYMMETRY         false
MEM_TOTAL        50000
MEM_STATIC       10000
THRESH           14
SCF_CONVERGENCE  8
XC_GRID          000099000590
NL_GRID          1
EDA_CLS_DISP     true
FD_MAT_VEC_PROD  FALSE
$end
