$molecule
-1 1
--
-1 1
F      0.000000     0.000000     0.000000
--
0 1
O      1.943180    -1.481226    -1.533782
H      1.492731    -0.983818    -0.762784
H      2.895702    -1.591579    -1.366159
O     -0.762415     1.620087    -2.169231
H     -0.422253     1.106304    -1.431278
H     -0.462493     2.531093    -2.014487
O     -2.519270    -0.464213     1.233913
H     -1.590893    -0.214604     1.060676
H     -2.543855    -0.853043     2.077102
O      0.060032     2.294594     1.777243
H      1.059937     2.316459     1.901961
H     -0.003335     1.560682     1.110421
O      0.992398    -1.552165     2.215795
H      0.275212    -1.674051     2.882465
H      0.602353    -1.005947     1.522455
O     -1.286709    -1.923112    -1.483128
H     -0.842732    -1.225214    -0.978564
H     -0.645524    -2.673708    -1.551089
$end

$rem
JOBTYPE          eda
EDA2             1
METHOD           wB97M-V
BASIS            def2-TZVPPD
SYMMETRY         false
MEM_TOTAL        50000
MEM_STATIC       10000
THRESH           14
SCF_CONVERGENCE  8
XC_GRID          000099000590
NL_GRID          1
EDA_CLS_DISP     true
FD_MAT_VEC_PROD  FALSE
$end
