$molecule
-1 1
--
-1 1
F      0.000000     0.000000     0.000000
--
0 1
O     -0.318921     0.096636     2.907600
H     -0.209107     0.035971     1.908927
H      0.113370     0.903125     3.133819
O     -1.624836     2.111763    -0.674676
H     -1.136960     1.329449    -0.328407
H     -1.463411     2.236115    -1.611825
O      1.830939     2.016220     1.109031
H      1.608996     1.925541     2.025625
H      1.143692     1.515686     0.601146
O      1.707563     0.850050    -2.001594
H      1.699145     1.727491    -2.482621
H      0.964886     0.694880    -1.390422
O     -2.207657    -1.687922    -0.160566
H     -1.466453    -1.044049    -0.029828
H     -3.021094    -1.262992     0.163198
$end

$rem
JOBTYPE          eda
EDA2             1
METHOD           wB97M-V
BASIS            def2-TZVPPD
SYMMETRY         false
MEM_TOTAL        50000
MEM_STATIC       10000
THRESH           14
SCF_CONVERGENCE  8
XC_GRID          000099000590
NL_GRID          1
EDA_CLS_DISP     true
FD_MAT_VEC_PROD  FALSE
$end
