$molecule
-1 1
--
-1 1
F      0.000000     0.000000     0.000000
--
0 1
O     -2.422908     0.436443    -1.499482
H     -1.583421     0.540873    -1.128320
H     -3.067179     0.942256    -0.943592
O     -1.782269    -1.451054     1.490475
H     -1.155844    -0.872265     0.947767
H     -2.169082    -0.755494     2.122596
O      1.567395     0.658397    -2.101903
H      1.968802    -0.162329    -2.355360
H      1.332041     0.650555    -1.175808
O     -0.388868    -1.935975    -2.120670
H      0.312952    -1.834528    -2.762104
H     -0.331122    -1.285311    -1.418455
O      1.307341    -2.198390     1.234552
H      0.748192    -1.574726     0.741286
H      0.754588    -2.889530     1.584528
O     -0.030587     1.864002     2.308776
H      0.162209     1.252108     1.618688
H      0.368553     1.392861     3.076085
$end

$rem
JOBTYPE          eda
EDA2             1
METHOD           wB97M-V
BASIS            def2-TZVPPD
SYMMETRY         false
MEM_TOTAL        50000
MEM_STATIC       10000
THRESH           14
SCF_CONVERGENCE  8
XC_GRID          000099000590
NL_GRID          1
EDA_CLS_DISP     true
FD_MAT_VEC_PROD  FALSE
$end
