$molecule
-1 1
--
-1 1
F      0.000000     0.000000     0.000000
--
0 1
O     -0.499858     2.656083    -0.452516
H     -0.568811     1.780548    -0.057749
H     -0.971596     2.655662    -1.273282
O      2.032753     1.165306     1.191711
H      1.862455     1.191590     2.129967
H      1.311241     0.610980     0.867723
O      1.503412    -0.706894    -2.146729
H      2.318272    -0.158179    -2.419535
H      1.004696    -0.164797    -1.460316
O     -1.040215     0.023420     2.545448
H     -0.674650     0.273310     1.628852
H     -1.234537     0.904277     2.858910
$end

$rem
JOBTYPE          eda
EDA2             1
METHOD           wB97M-V
BASIS            def2-TZVPPD
SYMMETRY         false
MEM_TOTAL        50000
MEM_STATIC       10000
THRESH           14
SCF_CONVERGENCE  8
XC_GRID          000099000590
NL_GRID          1
EDA_CLS_DISP     true
FD_MAT_VEC_PROD  FALSE
$end
