$molecule
-1 1
--
-1 1
F      0.000000     0.000000     0.000000
--
0 1
O      2.087812    -2.235654    -0.550394
H      2.423601    -2.899671    -1.150602
H      2.190875    -1.369155    -0.929071
O      0.415489    -2.119119     2.070246
H      0.482112    -2.996680     1.655893
H      0.091966    -1.548601     1.375700
O     -0.730006     1.647225     1.930793
H     -0.321923     1.147844     1.188363
H     -1.196312     2.375028     1.563056
O      2.361343     1.061093     0.316103
H      2.099324     1.707318     0.957043
H      1.582739     0.514063     0.417266
O      0.150347     2.501610    -1.052386
H      0.710848     3.031242    -0.538799
H      0.364562     1.585555    -0.826675
O     -1.585915    -0.182921    -2.257821
H     -0.843561    -0.199899    -1.588493
H     -2.094702    -1.043463    -2.099459
$end

$rem
JOBTYPE          eda
EDA2             1
METHOD           wB97M-V
BASIS            def2-TZVPPD
SYMMETRY         false
MEM_TOTAL        50000
MEM_STATIC       10000
THRESH           14
SCF_CONVERGENCE  8
XC_GRID          000099000590
NL_GRID          1
EDA_CLS_DISP     true
FD_MAT_VEC_PROD  FALSE
$end
