$molecule
-1 1
--
-1 1
F      0.000000     0.000000     0.000000
--
0 1
O     -1.152877     0.775210     2.799095
H     -0.979389     1.239914     2.012069
H     -1.986909     0.379505     2.526794
O      0.232176     1.587663    -2.218403
H      0.383176     1.242774    -3.150384
H     -0.060341     0.843167    -1.615248
O     -0.940436    -2.154740    -1.299584
H     -0.646049    -1.333314    -0.867497
H     -0.799171    -2.106453    -2.243974
O      2.111858     1.605694     0.351401
H      1.676845     2.494260     0.345983
H      1.413769     0.958707     0.234089
O      2.320272    -1.659046    -0.126921
H      1.601597    -1.085618    -0.253150
H      2.844791    -1.412144     0.605145
O     -1.080869     2.845321     0.665618
H     -0.525904     3.388483     0.014643
H     -1.193445     1.947137     0.396901
$end

$rem
JOBTYPE          eda
EDA2             1
METHOD           wB97M-V
BASIS            def2-TZVPPD
SYMMETRY         false
MEM_TOTAL        50000
MEM_STATIC       10000
THRESH           14
SCF_CONVERGENCE  8
XC_GRID          000099000590
NL_GRID          1
EDA_CLS_DISP     true
FD_MAT_VEC_PROD  FALSE
$end
