$molecule
-1 1
--
-1 1
F      0.000000     0.000000     0.000000
--
0 1
O      2.575075     1.073331     0.885547
H      2.106665     1.918583     0.702596
H      2.020041     0.521984     0.325554
O      0.883125    -2.526453     0.876729
H      0.128634    -3.022285     1.173703
H      0.480571    -1.707949     0.521989
O     -1.584240    -0.527688    -2.161408
H     -1.072012    -0.480481    -1.337240
H     -1.395342    -1.397524    -2.511963
O     -2.043312     1.766266     0.317173
H     -2.873447     1.429607    -0.044182
H     -1.403098     0.963197     0.113049
O     -0.453685     0.678264     2.814720
H      0.049164     0.242469     2.102026
H     -1.380466     0.343591     2.776247
$end

$rem
JOBTYPE          eda
EDA2             1
METHOD           wB97M-V
BASIS            def2-TZVPPD
SYMMETRY         false
MEM_TOTAL        50000
MEM_STATIC       10000
THRESH           14
SCF_CONVERGENCE  8
XC_GRID          000099000590
NL_GRID          1
EDA_CLS_DISP     true
FD_MAT_VEC_PROD  FALSE
$end
