$molecule
-1 1
--
-1 1
F      0.000000     0.000000     0.000000
--
0 1
O      1.569360     1.518618    -1.837610
H      1.155301     1.598253    -2.718294
H      0.927061     0.996283    -1.347020
O      0.530386     0.269958     2.875111
H      1.172033     0.849356     3.370842
H      0.631636     0.167803     1.901881
O     -0.928796    -2.527019    -0.372089
H     -0.809957    -1.635358     0.032375
H     -1.197638    -3.136721     0.344653
O     -1.941797     1.884913     0.438019
H     -1.127941     2.210082     0.062217
H     -1.791200     0.968612     0.500762
O     -2.979564    -0.679629     0.263051
H     -3.238399    -1.549104     0.622195
H     -3.682243    -0.073049     0.667091
O      1.997910    -1.718340     0.059017
H      1.266622    -1.101851    -0.130084
H      2.707820    -1.267608     0.569883
$end

$rem
JOBTYPE          eda
EDA2             1
METHOD           wB97M-V
BASIS            def2-TZVPPD
SYMMETRY         false
MEM_TOTAL        50000
MEM_STATIC       10000
THRESH           14
SCF_CONVERGENCE  8
XC_GRID          000099000590
NL_GRID          1
EDA_CLS_DISP     true
FD_MAT_VEC_PROD  FALSE
$end
