$molecule
-1 1
--
-1 1
F      0.000000     0.000000     0.000000
--
0 1
O     -1.757669     1.731762    -1.188806
H     -1.054100     1.222666    -0.807146
H     -2.431703     1.051578    -1.257114
O     -0.820887    -1.641481    -2.008204
H     -0.237360    -2.357330    -2.347688
H     -0.248955    -1.123146    -1.330694
O     -0.048245    -2.492875     1.400940
H     -0.330918    -3.382914     1.097712
H     -0.433577    -1.797270     0.832638
O     -0.132776     0.799660     2.598069
H      0.795625     0.856029     2.802210
H     -0.046890     0.411235     1.712879
O      1.613949     1.493049    -1.711417
H      1.268428     1.014021    -0.937188
H      2.504434     1.668752    -1.471379
$end

$rem
JOBTYPE          eda
EDA2             1
METHOD           wB97M-V
BASIS            def2-TZVPPD
SYMMETRY         false
MEM_TOTAL        50000
MEM_STATIC       10000
THRESH           14
SCF_CONVERGENCE  8
XC_GRID          000099000590
NL_GRID          1
EDA_CLS_DISP     true
FD_MAT_VEC_PROD  FALSE
$end
