$molecule
-1 1
--
-1 1
F      0.000000     0.000000     0.000000
--
0 1
O     -1.251116    -1.324241     1.858701
H     -0.644750    -1.144723     1.133580
H     -1.241253    -0.487636     2.348342
O     -0.962366    -2.269385    -1.669304
H     -0.867402    -1.542612    -1.090180
H     -1.783634    -2.711967    -1.474651
O      2.005604    -2.181428    -0.280141
H      1.372139    -1.457922    -0.354971
H      2.139229    -2.266705     0.685608
O     -0.128590     2.176756     1.552053
H     -0.060687     1.399457     1.025673
H     -0.705954     2.013435     2.266419
O     -2.791118     0.791832    -0.581116
H     -1.861301     0.475451    -0.426954
H     -2.961146     1.432019     0.088729
$end

$rem
JOBTYPE          eda
EDA2             1
METHOD           wB97M-V
BASIS            def2-TZVPPD
SYMMETRY         false
MEM_TOTAL        50000
MEM_STATIC       10000
THRESH           14
SCF_CONVERGENCE  8
XC_GRID          000099000590
NL_GRID          1
EDA_CLS_DISP     true
FD_MAT_VEC_PROD  FALSE
$end
