$molecule
-1 1
--
-1 1
F      0.000000     0.000000     0.000000
--
0 1
O      1.687657     1.316846    -1.965167
H      2.588408     1.564995    -1.727402
H      1.164304     1.175955    -1.161700
O     -1.464850     2.221854    -0.966651
H     -1.553513     2.085937    -1.894647
H     -0.984980     1.460650    -0.640983
O      1.779926    -1.980227    -0.972180
H      1.031895    -1.360303    -0.763898
H      1.804884    -2.133995    -1.896560
O     -1.058445    -2.339141     1.291056
H     -0.708302    -3.070607     0.723884
H     -0.765571    -1.555023     0.855966
O     -1.517699    -1.121248    -1.892872
H     -2.456826    -0.756113    -1.965467
H     -1.021022    -0.535627    -1.187547
$end

$rem
JOBTYPE          eda
EDA2             1
METHOD           wB97M-V
BASIS            def2-TZVPPD
SYMMETRY         false
MEM_TOTAL        50000
MEM_STATIC       10000
THRESH           14
SCF_CONVERGENCE  8
XC_GRID          000099000590
NL_GRID          1
EDA_CLS_DISP     true
FD_MAT_VEC_PROD  FALSE
$end
