$molecule
-1 1
--
-1 1
F      0.000000     0.000000     0.000000
--
0 1
O     -0.457010    -0.913459     2.874606
H     -0.306480    -0.682030     1.919254
H      0.333257    -0.768961     3.330802
O     -1.736364     1.604014    -1.591024
H     -1.392750     1.031544    -0.917866
H     -2.603083     1.329404    -1.841321
O      0.819239     2.289400     1.312707
H      0.597058     2.285995     2.245025
H      0.522724     1.425126     0.938345
O      2.214721     0.612757    -1.586063
H      1.959488     0.830819    -2.501662
H      1.438663     0.411088    -1.114963
O     -1.059183    -2.036592    -1.488676
H     -0.695984    -1.884564    -2.350649
H     -0.551134    -1.260861    -1.152770
$end

$rem
JOBTYPE          eda
EDA2             1
METHOD           wB97M-V
BASIS            def2-TZVPPD
SYMMETRY         false
MEM_TOTAL        50000
MEM_STATIC       10000
THRESH           14
SCF_CONVERGENCE  8
XC_GRID          000099000590
NL_GRID          1
EDA_CLS_DISP     true
FD_MAT_VEC_PROD  FALSE
$end
