$molecule
-1 1
--
-1 1
F      0.000000     0.000000     0.000000
--
0 1
O      1.999981     1.872363    -0.549390
H      1.832241     2.798537    -0.384091
H      1.190518     1.366946    -0.536042
O     -0.732147    -0.508733    -2.638181
H     -0.559848    -0.335039    -1.688412
H     -1.560312    -0.049892    -2.825446
O     -1.396072     2.119528     1.247335
H     -0.668981     2.736259     1.112284
H     -0.986667     1.275496     1.030001
O      0.539337    -2.569316     0.762966
H      0.351918    -1.701170     0.380121
H      0.432027    -3.158462     0.035461
O      2.295897     0.161463     1.842537
H      1.406911     0.065818     2.189690
H      2.212168     0.621719     0.983706
O     -2.515644    -1.246307     0.318199
H     -2.419320    -2.143283    -0.096705
H     -1.667771    -0.781486     0.321701
$end

$rem
JOBTYPE          eda
EDA2             1
METHOD           wB97M-V
BASIS            def2-TZVPPD
SYMMETRY         false
MEM_TOTAL        50000
MEM_STATIC       10000
THRESH           14
SCF_CONVERGENCE  8
XC_GRID          000099000590
NL_GRID          1
EDA_CLS_DISP     true
FD_MAT_VEC_PROD  FALSE
$end
