$molecule
-1 1
--
-1 1
F      0.000000     0.000000     0.000000
--
0 1
O     -1.206754     1.445995    -2.000126
H     -0.743175     0.893122    -1.337335
H     -0.759524     1.330264    -2.863753
O      1.095483    -0.322767     2.616674
H      0.673548    -0.212929     1.764286
H      0.520481     0.121453     3.208852
O     -2.290620    -0.209671     1.348500
H     -2.963418    -0.750440     0.872484
H     -1.471779    -0.213731     0.855990
O      0.125449     2.911282     1.072482
H     -0.291998     2.122485     1.520867
H      0.238880     2.637426     0.191158
O      0.042032    -2.844174    -0.084119
H     -0.661379    -3.010993     0.545538
H      0.052740    -1.870059    -0.098146
O      2.622328     0.650013    -0.846197
H      1.754348     0.759921    -0.394475
H      2.674742     1.478542    -1.440090
$end

$rem
JOBTYPE          eda
EDA2             1
METHOD           wB97M-V
BASIS            def2-TZVPPD
SYMMETRY         false
MEM_TOTAL        50000
MEM_STATIC       10000
THRESH           14
SCF_CONVERGENCE  8
XC_GRID          000099000590
NL_GRID          1
EDA_CLS_DISP     true
FD_MAT_VEC_PROD  FALSE
$end
