$molecule
-1 1
--
-1 1
F      0.000000     0.000000     0.000000
--
0 1
O     -1.868807    -1.606584    -1.232722
H     -2.648858    -1.210748    -1.674454
H     -1.354970    -0.928574    -0.884703
O      1.561053    -2.342486    -0.324932
H      1.024559    -1.639627    -0.095546
H      2.367186    -2.202968     0.205219
O      2.397997     0.883652    -1.479190
H      2.460236     0.138607    -2.095251
H      1.572467     0.770589    -1.000388
O     -0.938943     1.901674    -1.746159
H     -0.619530     1.193323    -1.188260
H     -0.677226     1.664461    -2.680593
O      1.422331     0.953610     2.122850
H      1.087694     1.659515     2.606883
H      0.843206     0.805126     1.373295
$end

$rem
JOBTYPE          eda
EDA2             1
METHOD           wB97M-V
BASIS            def2-TZVPPD
SYMMETRY         false
MEM_TOTAL        50000
MEM_STATIC       10000
THRESH           14
SCF_CONVERGENCE  8
XC_GRID          000099000590
NL_GRID          1
EDA_CLS_DISP     true
FD_MAT_VEC_PROD  FALSE
$end
