$molecule
-1 1
--
-1 1
F      0.000000     0.000000     0.000000
--
0 1
O      0.705041     0.085824     2.845836
H      0.718042     0.221437     1.918408
H      1.585010     0.151425     3.189331
O      1.846277     0.095164    -2.146633
H      2.732713    -0.105605    -1.756703
H      1.254731     0.091480    -1.406651
O     -2.274277     0.593945    -1.273101
H     -2.701262    -0.233434    -0.967959
H     -1.360007     0.511388    -0.932384
O      1.896841    -1.872735     0.495161
H      1.093557    -1.387163     0.388915
H      2.667595    -1.391507     0.177125
O      1.052918     2.610822     1.020224
H      0.691159     1.833771     0.662648
H      1.468412     2.477073     1.892293
$end

$rem
JOBTYPE          eda
EDA2             1
METHOD           wB97M-V
BASIS            def2-TZVPPD
SYMMETRY         false
MEM_TOTAL        50000
MEM_STATIC       10000
THRESH           14
SCF_CONVERGENCE  8
XC_GRID          000099000590
NL_GRID          1
EDA_CLS_DISP     true
FD_MAT_VEC_PROD  FALSE
$end
