$molecule
-1 1
--
-1 1
F      0.000000     0.000000     0.000000
--
0 1
O      1.590084    -1.184330    -2.003102
H      1.148328    -0.682878    -1.303231
H      0.913372    -1.486227    -2.592972
O     -2.579713     0.695595     0.903205
H     -1.766790     0.373051     0.472017
H     -2.556590     0.408652     1.799991
O      0.006302    -2.680277     0.762718
H     -0.174598    -1.785268     0.559851
H      0.461896    -3.084610     0.019470
O     -1.603595     0.178698    -2.497753
H     -1.541862     0.933686    -3.056288
H     -0.984133     0.301020    -1.747949
O      0.426525     1.345587     2.362969
H     -0.180704     2.043739     2.250203
H      0.386881     0.812199     1.526283
$end

$rem
JOBTYPE          eda
EDA2             1
METHOD           wB97M-V
BASIS            def2-TZVPPD
SYMMETRY         false
MEM_TOTAL        50000
MEM_STATIC       10000
THRESH           14
SCF_CONVERGENCE  8
XC_GRID          000099000590
NL_GRID          1
EDA_CLS_DISP     true
FD_MAT_VEC_PROD  FALSE
$end
