$molecule
-1 1
--
-1 1
F      0.000000     0.000000     0.000000
--
0 1
O     -2.554885    -0.515321     0.758406
H     -1.612284    -0.473038     0.582957
H     -2.842041    -1.403277     1.084241
O      1.083037     2.154867     1.385653
H      0.609748     1.409713     0.882328
H      1.632519     2.510959     0.665831
O      0.426737    -2.496911    -0.665385
H      0.303600    -3.137566     0.078614
H     -0.052202    -1.707756    -0.340693
O     -1.104728     2.400067    -1.171868
H     -1.500405     1.941350    -1.947783
H     -0.886647     1.656492    -0.613653
$end

$rem
JOBTYPE          eda
EDA2             1
METHOD           wB97M-V
BASIS            def2-TZVPPD
SYMMETRY         false
MEM_TOTAL        50000
MEM_STATIC       10000
THRESH           14
SCF_CONVERGENCE  8
XC_GRID          000099000590
NL_GRID          1
EDA_CLS_DISP     true
FD_MAT_VEC_PROD  FALSE
$end
