$molecule
-1 1
--
-1 1
F      0.000000     0.000000     0.000000
--
0 1
O      0.588473    -0.884411    -2.532590
H      0.570163    -0.750592    -1.554364
H      0.212599    -1.767260    -2.854982
O      1.249696     2.505029    -0.435608
H      0.855008     1.572903    -0.277964
H      2.124949     2.543701     0.017355
O     -2.575407    -0.483611     0.341632
H     -3.023020    -0.104900    -0.406895
H     -1.638645    -0.352131     0.088858
O      0.581612     0.878877     2.831679
H      0.628358     0.650704     1.918655
H      1.486052     1.034802     3.119274
O     -0.124634    -2.755181     0.993578
H     -0.046177    -1.822951     0.906365
H      0.293841    -3.171635     0.264619
$end

$rem
JOBTYPE          eda
EDA2             1
METHOD           wB97M-V
BASIS            def2-TZVPPD
SYMMETRY         false
MEM_TOTAL        50000
MEM_STATIC       10000
THRESH           14
SCF_CONVERGENCE  8
XC_GRID          000099000590
NL_GRID          1
EDA_CLS_DISP     true
FD_MAT_VEC_PROD  FALSE
$end
