$molecule
-1 1
--
-1 1
F      0.000000     0.000000     0.000000
--
0 1
O     -0.952365     1.069811     2.420031
H     -1.809142     1.433385     2.206942
H     -0.677213     0.589182     1.599917
O     -2.646160    -0.758425    -0.155469
H     -1.673478    -0.567133     0.114755
H     -2.882933    -1.589745     0.287001
O     -0.629425     1.382429    -2.327001
H     -0.579909     1.003938    -1.422959
H     -1.177112     2.140621    -2.269006
O      2.229730     1.512680     0.749307
H      1.907904     1.873311     1.582375
H      1.496351     0.913088     0.515515
O      0.351042    -2.383392     1.594232
H     -0.034028    -1.661486     0.966528
H      1.180438    -2.089714     1.976787
$end

$rem
JOBTYPE          eda
EDA2             1
METHOD           wB97M-V
BASIS            def2-TZVPPD
SYMMETRY         false
MEM_TOTAL        50000
MEM_STATIC       10000
THRESH           14
SCF_CONVERGENCE  8
XC_GRID          000099000590
NL_GRID          1
EDA_CLS_DISP     true
FD_MAT_VEC_PROD  FALSE
$end
