$molecule
-1 1
--
-1 1
F      0.000000     0.000000     0.000000
--
0 1
O     -0.057118     2.692147    -0.976789
H      0.731116     3.225705    -0.805216
H      0.209827     1.795792    -0.774691
O      0.486465    -2.407014     1.207865
H      0.269082    -1.731333     0.576353
H      1.158872    -2.081555     1.761537
O      2.743152     0.252394     0.166207
H      2.913143     0.164435    -0.786041
H      1.744815     0.219563     0.238161
O      0.021137     0.684540     2.677081
H     -0.147829     0.359385     1.789779
H     -0.892075     0.785151     3.140166
O     -2.468711    -1.509440    -0.488093
H     -1.632848    -1.124206    -0.091186
H     -2.494928    -1.207266    -1.445224
O     -0.643514    -0.967018    -2.526052
H     -0.484782    -0.177777    -1.974885
H     -0.087133    -1.668284    -2.070015
$end

$rem
JOBTYPE          eda
EDA2             1
METHOD           wB97M-V
BASIS            def2-TZVPPD
SYMMETRY         false
MEM_TOTAL        50000
MEM_STATIC       10000
THRESH           14
SCF_CONVERGENCE  8
XC_GRID          000099000590
NL_GRID          1
EDA_CLS_DISP     true
FD_MAT_VEC_PROD  FALSE
$end
