$molecule
-1 1
--
-1 1
F      0.000000     0.000000     0.000000
--
0 1
O      0.316579     2.487371    -1.033870
H     -0.299784     2.958747    -1.698141
H      0.068567     1.636716    -0.609642
O     -2.966622    -0.324922    -0.279360
H     -1.997157    -0.168453    -0.193960
H     -3.039299    -1.203601    -0.674475
O      2.620493     0.082477    -0.913598
H      3.090818    -0.144429    -0.074903
H      1.665367     0.173836    -0.709739
O     -1.016627     1.008044     2.356890
H     -0.498021     0.696455     1.582640
H     -1.005983     0.224406     2.964702
O     -0.584061    -0.002881    -2.710546
H      0.203428     0.427802    -3.052160
H     -0.399019    -0.109730    -1.768497
$end

$rem
JOBTYPE          eda
EDA2             1
METHOD           wB97M-V
BASIS            def2-TZVPPD
SYMMETRY         false
MEM_TOTAL        50000
MEM_STATIC       10000
THRESH           14
SCF_CONVERGENCE  8
XC_GRID          000099000590
NL_GRID          1
EDA_CLS_DISP     true
FD_MAT_VEC_PROD  FALSE
$end
