$molecule
-1 1
--
-1 1
F      0.000000     0.000000     0.000000
--
0 1
O      2.576276    -1.171167     0.788022
H      1.776637    -0.888891     0.309615
H      2.425614    -0.738698     1.637671
O     -1.663160     2.156415    -0.956164
H     -1.185016     1.364115    -0.671662
H     -0.910896     2.670637    -1.306306
O     -0.927145    -2.816455     0.085393
H     -0.124316    -3.201248    -0.375297
H     -0.626505    -1.865791     0.240029
O      0.340789    -1.534314    -2.302097
H     -0.428489    -1.936195    -2.722286
H      0.080620    -0.911681    -1.592949
O      1.519278     2.030340     1.236737
H      1.945345     2.457646     0.452984
H      0.951977     1.348919     0.894026
$end

$rem
JOBTYPE          eda
EDA2             1
METHOD           wB97M-V
BASIS            def2-TZVPPD
SYMMETRY         false
MEM_TOTAL        50000
MEM_STATIC       10000
THRESH           14
SCF_CONVERGENCE  8
XC_GRID          000099000590
NL_GRID          1
EDA_CLS_DISP     true
FD_MAT_VEC_PROD  FALSE
$end
