$molecule
-1 1
--
-1 1
F      0.000000     0.000000     0.000000
--
0 1
O     -0.594284    -0.634372    -2.562911
H     -0.497083    -0.431183    -1.650200
H     -1.006656    -1.548570    -2.604579
O     -1.938246     2.105808    -0.043070
H     -1.889287     2.428560    -0.934253
H     -1.298126     1.315153    -0.005089
O      2.410889    -1.157179    -0.315817
H      2.529967    -1.073339    -1.271904
H      1.596731    -0.690599    -0.141440
O     -2.082039    -1.493757     1.208536
H     -1.903126    -2.455205     1.406995
H     -1.292528    -1.067209     0.789863
$end

$rem
JOBTYPE          eda
EDA2             1
METHOD           wB97M-V
BASIS            def2-TZVPPD
SYMMETRY         false
MEM_TOTAL        50000
MEM_STATIC       10000
THRESH           14
SCF_CONVERGENCE  8
XC_GRID          000099000590
NL_GRID          1
EDA_CLS_DISP     true
FD_MAT_VEC_PROD  FALSE
$end
