$molecule
-1 1
--
-1 1
F      0.000000     0.000000     0.000000
--
0 1
O     -2.418799     1.224952     0.138152
H     -2.380526     2.080135     0.563174
H     -1.516178     0.901788     0.092656
O      3.034813     0.347968     0.575749
H      3.211453     0.285459     1.525305
H      2.055606     0.112398     0.351073
O     -0.259645    -2.392526    -1.185459
H     -0.386119    -2.819401    -0.326599
H     -0.049678    -1.447133    -1.040451
O      1.007946    -1.594929     2.050955
H      0.819578    -2.573084     2.042697
H      0.499845    -1.168256     1.317571
O      0.179580     0.924429    -2.718430
H      0.785527     0.233681    -3.049861
H      0.103012     0.856389    -1.777860
$end

$rem
JOBTYPE          eda
EDA2             1
METHOD           wB97M-V
BASIS            def2-TZVPPD
SYMMETRY         false
MEM_TOTAL        50000
MEM_STATIC       10000
THRESH           14
SCF_CONVERGENCE  8
XC_GRID          000099000590
NL_GRID          1
EDA_CLS_DISP     true
FD_MAT_VEC_PROD  FALSE
$end
