$molecule
-1 1
--
-1 1
F      0.000000     0.000000     0.000000
--
0 1
O     -2.200509     1.323634     0.710260
H     -1.503891     0.683674     0.540733
H     -2.315484     1.737995    -0.119068
O     -1.967079    -2.020860    -0.122763
H     -1.318963    -1.305195     0.136157
H     -1.696741    -2.218317    -1.007498
O      0.991465    -1.547512     2.500463
H      0.667023    -1.154030     1.676389
H      0.516695    -1.090567     3.200283
O      2.410120     0.780079    -1.095237
H      3.060268     0.046287    -0.902074
H      1.654642     0.711894    -0.477528
O      1.437300    -2.134809    -0.746584
H      1.223810    -2.927188    -0.210324
H      0.772852    -1.490569    -0.481987
O     -0.357139     2.126165    -1.924590
H     -0.018848     1.313137    -1.513999
H      0.141845     2.856791    -1.535479
$end

$rem
JOBTYPE          eda
EDA2             1
METHOD           wB97M-V
BASIS            def2-TZVPPD
SYMMETRY         false
MEM_TOTAL        50000
MEM_STATIC       10000
THRESH           14
SCF_CONVERGENCE  8
XC_GRID          000099000590
NL_GRID          1
EDA_CLS_DISP     true
FD_MAT_VEC_PROD  FALSE
$end
