$molecule
-1 1
--
-1 1
F      0.000000     0.000000     0.000000
--
0 1
O     -1.006216    -0.656294    -2.699179
H     -1.494548     0.181956    -2.928445
H     -0.539619    -0.569324    -1.861169
O      1.610323     1.707632    -1.491867
H      1.013163     2.482512    -1.512988
H      1.164599     1.015320    -1.082122
O     -1.681240    -2.035223     1.447043
H     -1.235665    -1.300377     0.974924
H     -2.630026    -1.906729     1.111423
O      2.021760    -1.325611     0.977475
H      1.199443    -1.017688     0.585508
H      2.376563    -1.912348     0.315540
$end

$rem
JOBTYPE          eda
EDA2             1
METHOD           wB97M-V
BASIS            def2-TZVPPD
SYMMETRY         false
MEM_TOTAL        50000
MEM_STATIC       10000
THRESH           14
SCF_CONVERGENCE  8
XC_GRID          000099000590
NL_GRID          1
EDA_CLS_DISP     true
FD_MAT_VEC_PROD  FALSE
$end
