$molecule
-1 1
--
-1 1
Cl     0.000000     0.000000     0.000000
--
0 1
O     -3.036540    -1.130948     0.571455
H     -2.816521    -0.349188     0.044649
H     -4.001200    -1.116491     0.759985
O      2.042900     1.983750     1.557742
H      1.377876     1.644053     0.979838
H      2.348539     2.811821     1.186573
O     -1.201565     2.176958     2.115980
H     -0.858161     1.779863     1.307099
H     -0.662453     1.807091     2.819899
O      0.655515    -1.917276     2.650823
H      0.870212    -1.423797     1.789194
H     -0.239017    -1.790514     2.917007
O     -0.319376     2.472691    -2.034529
H     -0.223367     1.847408    -1.233402
H     -0.065493     3.291772    -1.721202
O      2.365589    -1.192386    -1.524898
H      2.063632    -1.946725    -1.022722
H      1.713985    -0.498279    -1.350896
$end

$rem
JOBTYPE          eda
EDA2             1
METHOD           wB97M-V
BASIS            def2-TZVPPD
SYMMETRY         false
MEM_TOTAL        50000
MEM_STATIC       10000
THRESH           14
SCF_CONVERGENCE  8
XC_GRID          000099000590
NL_GRID          1
EDA_CLS_DISP     true
FD_MAT_VEC_PROD  FALSE
$end
