$molecule
-1 1
--
-1 1
Cl     0.000000     0.000000     0.000000
--
0 1
O      2.217451     0.173132    -2.196728
H      1.450489     0.085813    -1.601960
H      2.136415     1.036921    -2.632012
O     -3.104951     1.312552    -0.666533
H     -2.224123     0.928576    -0.487843
H     -3.617532     0.562843    -0.908656
O      1.272227     2.966293     0.141325
H      0.856129     3.522110     0.878231
H      0.642780     2.184762     0.155358
O      0.216100     0.918779     3.064477
H      0.501188     0.528894     2.252647
H     -0.506248     0.390525     3.374447
O      1.294073    -2.891435     1.095122
H      1.863156    -3.654697     1.184616
H      1.395565    -2.604001     0.149232
O     -1.460884    -1.361846    -2.351721
H     -0.940849    -0.704004    -1.930802
H     -1.693945    -0.968444    -3.207386
$end

$rem
JOBTYPE          eda
EDA2             1
METHOD           wB97M-V
BASIS            def2-TZVPPD
SYMMETRY         false
MEM_TOTAL        50000
MEM_STATIC       10000
THRESH           14
SCF_CONVERGENCE  8
XC_GRID          000099000590
NL_GRID          1
EDA_CLS_DISP     true
FD_MAT_VEC_PROD  FALSE
$end
