$molecule
-1 1
--
-1 1
Cl     0.000000     0.000000     0.000000
--
0 1
O     -0.626448    -3.113592     0.754314
H     -0.239394    -2.239675     0.691889
H     -1.537945    -2.905973     0.527826
O      1.128243    -1.708551    -2.677056
H      0.826606    -1.143339    -1.981423
H      0.825023    -2.562071    -2.503514
O      2.956940    -0.462505     1.050307
H      2.187350    -0.102340     0.693405
H      2.611752    -1.280708     1.398652
O     -0.731735     3.351951     0.529715
H     -0.503408     2.491672     0.171643
H     -0.052956     3.760527     1.140496
O      1.659667     1.365866    -2.584794
H      1.265558     1.161297    -3.485117
H      1.085125     0.911723    -1.915010
$end

$rem
JOBTYPE          eda
EDA2             1
METHOD           wB97M-V
BASIS            def2-TZVPPD
SYMMETRY         false
MEM_TOTAL        50000
MEM_STATIC       10000
THRESH           14
SCF_CONVERGENCE  8
XC_GRID          000099000590
NL_GRID          1
EDA_CLS_DISP     true
FD_MAT_VEC_PROD  FALSE
$end
