$molecule
-1 1
--
-1 1
Cl     0.000000     0.000000     0.000000
--
0 1
O     -0.722002    -3.248013     0.354964
H     -0.613309    -2.289253     0.433906
H     -1.574971    -3.503131     0.680548
O     -1.526330     2.399946     1.544144
H     -1.173898     2.409457     2.433870
H     -1.098273     1.621727     1.168734
O      3.178802    -0.106216     0.211667
H      3.377119    -0.828001     0.797087
H      2.256728     0.086519     0.321265
O      1.888706     2.928582     0.086703
H      1.196918     2.292193     0.279175
H      1.627389     3.844402     0.410362
O      0.992794    -0.592290     3.268874
H      1.905677    -0.231051     3.156662
H      0.406310    -0.199508     2.620077
$end

$rem
JOBTYPE          eda
EDA2             1
METHOD           wB97M-V
BASIS            def2-TZVPPD
SYMMETRY         false
MEM_TOTAL        50000
MEM_STATIC       10000
THRESH           14
SCF_CONVERGENCE  8
XC_GRID          000099000590
NL_GRID          1
EDA_CLS_DISP     true
FD_MAT_VEC_PROD  FALSE
$end
