$molecule
-1 1
--
-1 1
Cl     0.000000     0.000000     0.000000
--
0 1
O      1.742297    -2.654047     1.118768
H      1.260670    -2.008429     0.613643
H      2.683510    -2.425408     0.973453
O     -0.878321    -2.549464    -2.008334
H     -0.081928    -2.939664    -2.323798
H     -0.714875    -1.691467    -1.528138
O      1.749563    -0.102248     3.018640
H      2.471494    -0.737311     3.082986
H      1.443373    -0.105267     2.081928
O     -0.979852     2.756798     1.607170
H     -1.662922     2.629789     2.250272
H     -0.638372     1.968890     1.221055
O      1.578888     0.765967    -2.773134
H      1.498143     0.657890    -1.802469
H      1.511288     1.750790    -2.889389
O     -1.085832     2.723152    -1.612034
H     -1.583392     2.750532    -2.453881
H     -0.723114     1.794176    -1.507763
$end

$rem
JOBTYPE          eda
EDA2             1
METHOD           wB97M-V
BASIS            def2-TZVPPD
SYMMETRY         false
MEM_TOTAL        50000
MEM_STATIC       10000
THRESH           14
SCF_CONVERGENCE  8
XC_GRID          000099000590
NL_GRID          1
EDA_CLS_DISP     true
FD_MAT_VEC_PROD  FALSE
$end
