$molecule
-1 1
--
-1 1
Cl     0.000000     0.000000     0.000000
--
0 1
O     -0.280808    -3.080814    -0.219496
H     -0.189651    -2.233915    -0.698426
H     -1.211460    -3.317950    -0.131329
O     -2.481935     1.642067    -1.399642
H     -3.385130     1.319635    -1.209210
H     -2.045854     1.470675    -0.571808
O      3.200063    -0.253611    -0.094584
H      2.299885    -0.264054     0.155672
H      3.393302     0.468831    -0.634648
O     -0.386088     0.401159     3.233560
H     -0.468246     0.509841     2.292034
H      0.523611     0.081762     3.396811
O      1.511570     0.499460    -2.904062
H      2.403978     0.871797    -2.676264
H      0.955551     0.438546    -2.110677
$end

$rem
JOBTYPE          eda
EDA2             1
METHOD           wB97M-V
BASIS            def2-TZVPPD
SYMMETRY         false
MEM_TOTAL        50000
MEM_STATIC       10000
THRESH           14
SCF_CONVERGENCE  8
XC_GRID          000099000590
NL_GRID          1
EDA_CLS_DISP     true
FD_MAT_VEC_PROD  FALSE
$end
