$molecule
-1 1
--
-1 1
Cl     0.000000     0.000000     0.000000
--
0 1
O      2.710010     1.677585    -1.071771
H      3.152698     1.550298    -0.212812
H      1.765317     1.467364    -1.015440
O     -3.102038    -0.017194    -1.525341
H     -3.358242     0.887782    -1.519567
H     -2.125200    -0.019232    -1.246653
O     -1.292965     2.960221    -0.132286
H     -0.950528     3.448108    -0.917646
H     -0.726725     2.174558    -0.058260
$end

$rem
JOBTYPE          eda
EDA2             1
METHOD           wB97M-V
BASIS            def2-TZVPPD
SYMMETRY         false
MEM_TOTAL        50000
MEM_STATIC       10000
THRESH           14
SCF_CONVERGENCE  8
XC_GRID          000099000590
NL_GRID          1
EDA_CLS_DISP     true
FD_MAT_VEC_PROD  FALSE
$end
