$molecule
-1 1
--
-1 1
Cl     0.000000     0.000000     0.000000
--
0 1
O     -2.041021    -2.196464    -1.333745
H     -1.300794    -2.029781    -0.728894
H     -2.698392    -2.708355    -0.840419
O      0.419223     0.084825    -3.085711
H     -0.280779     0.277678    -3.790691
H      0.077234     0.159042    -2.208543
O      3.090762    -0.717603    -0.627277
H      3.080613    -1.289849    -1.410804
H      2.118014    -0.454394    -0.575587
O      0.777671     3.142833     0.471574
H      1.633570     3.312266     0.051366
H      0.542632     2.198669     0.371825
$end

$rem
JOBTYPE          eda
EDA2             1
METHOD           wB97M-V
BASIS            def2-TZVPPD
SYMMETRY         false
MEM_TOTAL        50000
MEM_STATIC       10000
THRESH           14
SCF_CONVERGENCE  8
XC_GRID          000099000590
NL_GRID          1
EDA_CLS_DISP     true
FD_MAT_VEC_PROD  FALSE
$end
