$molecule
-1 1
--
-1 1
Cl     0.000000     0.000000     0.000000
--
0 1
O     -0.798897     3.124496    -0.215681
H      0.060559     3.616307    -0.380398
H     -0.556490     2.210170     0.138435
O      2.730753    -0.341451    -2.110045
H      2.680631    -1.003483    -1.437785
H      1.867978    -0.486660    -2.459935
O      2.428296    -0.475128     2.348279
H      1.839286    -0.737724     1.638816
H      2.905468    -1.272764     2.554222
O     -1.218819     0.750935     2.669050
H     -1.171669     0.087468     3.394068
H     -0.655150     0.411680     1.957964
O     -0.679205    -3.054936    -0.078274
H     -0.469217    -2.104139    -0.091012
H     -0.608392    -3.314175    -1.020973
$end

$rem
JOBTYPE          eda
EDA2             1
METHOD           wB97M-V
BASIS            def2-TZVPPD
SYMMETRY         false
MEM_TOTAL        50000
MEM_STATIC       10000
THRESH           14
SCF_CONVERGENCE  8
XC_GRID          000099000590
NL_GRID          1
EDA_CLS_DISP     true
FD_MAT_VEC_PROD  FALSE
$end
