$molecule
-1 1
--
-1 1
Cl     0.000000     0.000000     0.000000
--
0 1
O     -2.666239    -1.301881    -1.054630
H     -2.570208    -2.255430    -1.078506
H     -1.746081    -0.991791    -0.817387
O      2.937235     1.235636     1.266441
H      2.072901     1.332314     0.901382
H      3.468418     0.879650     0.560004
O      1.295345    -2.245929    -1.956363
H      1.158236    -1.580727    -1.284266
H      2.249821    -2.129765    -2.294281
O     -0.958484     0.502465     3.280993
H     -0.809748     0.779828     2.366636
H     -1.182722     1.362005     3.722428
O      0.241628     0.646788    -3.126455
H     -0.264673    -0.011637    -3.659669
H      0.068030     0.453437    -2.210305
O     -0.360914    -2.944825     1.314556
H     -0.173939    -2.033118     1.069273
H     -0.850519    -2.681567     2.112550
$end

$rem
JOBTYPE          eda
EDA2             1
METHOD           wB97M-V
BASIS            def2-TZVPPD
SYMMETRY         false
MEM_TOTAL        50000
MEM_STATIC       10000
THRESH           14
SCF_CONVERGENCE  8
XC_GRID          000099000590
NL_GRID          1
EDA_CLS_DISP     true
FD_MAT_VEC_PROD  FALSE
$end
