$molecule
-1 1
--
-1 1
Cl     0.000000     0.000000     0.000000
--
0 1
O      2.004466    -0.496177     2.546536
H      2.585244    -1.154785     2.189831
H      1.363421    -0.266412     1.830507
O      2.479580    -1.598125    -1.227379
H      1.827334    -1.093465    -0.781736
H      2.036467    -2.371329    -1.587810
O     -2.771537     0.837457     1.822875
H     -3.237440     0.820329     0.989508
H     -2.323566     0.003383     1.867055
O     -0.416174    -1.379225    -3.003309
H     -0.168991    -0.896023    -2.169454
H      0.155754    -2.140456    -3.062651
$end

$rem
JOBTYPE          eda
EDA2             1
METHOD           wB97M-V
BASIS            def2-TZVPPD
SYMMETRY         false
MEM_TOTAL        50000
MEM_STATIC       10000
THRESH           14
SCF_CONVERGENCE  8
XC_GRID          000099000590
NL_GRID          1
EDA_CLS_DISP     true
FD_MAT_VEC_PROD  FALSE
$end
