$molecule
-1 1
--
-1 1
Cl     0.000000     0.000000     0.000000
--
0 1
O      0.342923    -3.144879    -0.065421
H      0.545982    -2.209152     0.245600
H      0.550095    -3.627707     0.755600
O      1.545164    -1.036990    -2.802892
H      1.062947    -0.596055    -2.031424
H      1.045874    -1.828531    -2.968351
O     -2.202907    -0.562551    -2.232048
H     -2.116080    -1.498992    -1.934838
H     -1.695715    -0.086551    -1.598454
O      2.746028     1.913676     0.329460
H      1.934738     1.451620     0.279372
H      3.036698     2.122048     1.297810
$end

$rem
JOBTYPE          eda
EDA2             1
METHOD           wB97M-V
BASIS            def2-TZVPPD
SYMMETRY         false
MEM_TOTAL        50000
MEM_STATIC       10000
THRESH           14
SCF_CONVERGENCE  8
XC_GRID          000099000590
NL_GRID          1
EDA_CLS_DISP     true
FD_MAT_VEC_PROD  FALSE
$end
