$molecule
-1 1
--
-1 1
Cl     0.000000     0.000000     0.000000
--
0 1
O     -2.143902     2.687894     0.369827
H     -1.751923     1.916157    -0.042508
H     -1.445437     3.008980     0.964821
O      1.417822     2.683757    -0.963726
H      1.031224     1.892839    -0.638075
H      2.176857     2.933195    -0.408350
O      2.157044    -1.948549     1.619987
H      1.520347    -1.260861     1.273406
H      3.039464    -1.804037     1.249342
O      0.806693     1.251237     2.760041
H      1.460046     1.848920     2.529623
H      0.603623     0.876975     1.911660
O     -0.281475     0.477673    -3.053473
H     -0.340130     0.334391    -2.127821
H      0.648817     0.768530    -3.252626
O      2.027069    -1.802246    -1.829283
H      1.495188    -2.466996    -2.164289
H      1.704265    -1.376629    -1.005788
$end

$rem
JOBTYPE          eda
EDA2             1
METHOD           wB97M-V
BASIS            def2-TZVPPD
SYMMETRY         false
MEM_TOTAL        50000
MEM_STATIC       10000
THRESH           14
SCF_CONVERGENCE  8
XC_GRID          000099000590
NL_GRID          1
EDA_CLS_DISP     true
FD_MAT_VEC_PROD  FALSE
$end
