$molecule
-1 1
--
-1 1
Cl     0.000000     0.000000     0.000000
--
0 1
O      0.309276     2.230580     2.384255
H      0.172358     1.780632     1.568707
H      0.070820     1.580932     3.070981
O     -3.106756    -1.201459     0.184859
H     -3.615730    -1.153433    -0.609588
H     -2.337299    -0.547263     0.106862
O      2.375058     0.829933    -1.953883
H      2.611264     1.792549    -2.051113
H      1.790705     0.628269    -1.215983
O     -0.849852     2.660511    -1.102632
H     -0.932491     2.833868    -2.029998
H     -0.711092     1.689129    -1.111696
$end

$rem
JOBTYPE          eda
EDA2             1
METHOD           wB97M-V
BASIS            def2-TZVPPD
SYMMETRY         false
MEM_TOTAL        50000
MEM_STATIC       10000
THRESH           14
SCF_CONVERGENCE  8
XC_GRID          000099000590
NL_GRID          1
EDA_CLS_DISP     true
FD_MAT_VEC_PROD  FALSE
$end
