$molecule
-1 1
--
-1 1
Cl     0.000000     0.000000     0.000000
--
0 1
O      2.658287     1.773398    -0.370529
H      2.091112     1.113408     0.001257
H      3.169430     2.152468     0.380958
O      1.386953    -0.634513     2.886858
H      0.938120    -0.445849     2.084134
H      0.881418    -1.312523     3.349073
O     -1.733809     0.841098    -2.621295
H     -2.603293     1.359142    -2.652883
H     -1.487596     0.630228    -1.696720
O     -0.222632     3.133093     0.500279
H     -1.083412     3.575365     0.472674
H     -0.438957     2.179388     0.524477
O     -2.943507     0.363094     1.076372
H     -3.375816    -0.520414     0.951393
H     -2.003804     0.267427     1.077284
$end

$rem
JOBTYPE          eda
EDA2             1
METHOD           wB97M-V
BASIS            def2-TZVPPD
SYMMETRY         false
MEM_TOTAL        50000
MEM_STATIC       10000
THRESH           14
SCF_CONVERGENCE  8
XC_GRID          000099000590
NL_GRID          1
EDA_CLS_DISP     true
FD_MAT_VEC_PROD  FALSE
$end
