$molecule
-1 1
--
-1 1
Cl     0.000000     0.000000     0.000000
--
0 1
O      0.276022    -1.334830     2.896328
H     -0.211761    -1.725104     2.182119
H      0.225626    -0.372405     2.733340
O     -0.259441    -2.755488    -2.002064
H     -0.286332    -3.342753    -1.273505
H     -0.138063    -1.901984    -1.552411
O     -1.584387     2.452541    -1.393069
H     -0.945988     3.217678    -1.519608
H     -1.143003     1.748347    -0.885128
O      3.243922     0.276549    -1.143430
H      3.813885    -0.022833    -1.928896
H      3.119205    -0.556862    -0.576049
O      0.948908     1.827757    -2.782125
H      0.552450     2.669854    -3.084036
H      1.588809     1.979159    -2.100038
O     -1.225019     2.327001     2.155250
H     -1.056340     1.708565     1.443285
H     -0.593127     1.978656     2.772432
O     -2.840213    -1.201275     0.058620
H     -2.064020    -0.701230    -0.168248
H     -2.637975    -1.778049     0.799946
O      2.501855    -2.019999     0.703643
H      3.050098    -1.823498     1.470441
H      1.634282    -1.604580     0.874442
$end

$rem
JOBTYPE          eda
EDA2             1
METHOD           wB97M-V
BASIS            def2-TZVPPD
SYMMETRY         false
MEM_TOTAL        50000
MEM_STATIC       10000
THRESH           14
SCF_CONVERGENCE  8
XC_GRID          000099000590
NL_GRID          1
EDA_CLS_DISP     true
FD_MAT_VEC_PROD  FALSE
$end
