$molecule
-1 1
--
-1 1
Cl     0.000000     0.000000     0.000000
--
0 1
O     -1.296686    -0.789802     2.747488
H     -0.958037    -0.553647     1.932824
H     -0.724324    -1.377608     3.241656
O     -2.076983    -2.553794    -0.486353
H     -1.591041    -1.707135    -0.380617
H     -3.010769    -2.279472    -0.495510
O     -0.476781     2.792384     1.610098
H     -0.194248     1.959841     1.163400
H      0.285662     3.369797     1.728100
O      2.175372    -1.021934     2.331685
H      2.807418    -1.629194     1.955755
H      1.693498    -0.623625     1.563577
O     -2.432882     1.506271    -1.718991
H     -1.619892     1.326935    -1.279633
H     -2.709491     0.637243    -2.073644
$end

$rem
JOBTYPE          eda
EDA2             1
METHOD           wB97M-V
BASIS            def2-TZVPPD
SYMMETRY         false
MEM_TOTAL        50000
MEM_STATIC       10000
THRESH           14
SCF_CONVERGENCE  8
XC_GRID          000099000590
NL_GRID          1
EDA_CLS_DISP     true
FD_MAT_VEC_PROD  FALSE
$end
