$molecule
-1 1
--
-1 1
Cl     0.000000     0.000000     0.000000
--
0 1
O     -2.944867    -0.564899    -1.779154
H     -3.524928     0.182418    -1.593240
H     -2.264671    -0.498491    -1.118838
O     -2.727221     1.269441     1.357269
H     -2.050786     0.651012     1.147961
H     -3.477837     0.948943     0.929990
O      2.085863     1.943286     1.689448
H      2.901729     2.319648     1.384240
H      1.848548     1.201502     1.097555
O      0.575664    -2.444183     2.291224
H      0.275698    -1.738441     1.676952
H     -0.166814    -2.631813     2.907550
O     -0.427516     3.289022     1.005525
H     -0.401676     2.496842     0.384779
H      0.441407     3.173898     1.412293
$end

$rem
JOBTYPE          eda
EDA2             1
METHOD           wB97M-V
BASIS            def2-TZVPPD
SYMMETRY         false
MEM_TOTAL        50000
MEM_STATIC       10000
THRESH           14
SCF_CONVERGENCE  8
XC_GRID          000099000590
NL_GRID          1
EDA_CLS_DISP     true
FD_MAT_VEC_PROD  FALSE
$end
