$molecule
-1 1
--
-1 1
Cl     0.000000     0.000000     0.000000
--
0 1
O      2.306524     0.633217    -2.188513
H      1.570454     0.370574    -1.615926
H      2.887146    -0.151513    -2.257538
O      0.078149     0.201119     3.270859
H      0.255800     0.302782     2.290721
H     -0.317832     0.962546     3.712858
O      0.602014    -3.026089     0.733427
H     -0.271511    -3.137610     1.226318
H      0.722809    -2.074794     0.669439
O      2.057172     1.804508     1.691988
H      1.703814     1.155732     1.058885
H      2.867329     1.350957     1.953438
$end

$rem
JOBTYPE          eda
EDA2             1
METHOD           wB97M-V
BASIS            def2-TZVPPD
SYMMETRY         false
MEM_TOTAL        50000
MEM_STATIC       10000
THRESH           14
SCF_CONVERGENCE  8
XC_GRID          000099000590
NL_GRID          1
EDA_CLS_DISP     true
FD_MAT_VEC_PROD  FALSE
$end
