$molecule
-1 1
--
-1 1
Cl     0.000000     0.000000     0.000000
--
0 1
O      2.347456    -0.658120     1.836924
H      1.503461    -0.342108     1.498010
H      3.023913    -0.371611     1.184006
O      1.476974    -2.981181    -0.401283
H      1.428877    -2.124141     0.044335
H      0.987391    -2.973805    -1.261521
O      1.221048    -0.028193    -3.177290
H      0.809868    -0.267015    -2.372466
H      1.740949     0.746334    -2.920550
O     -0.343156     1.510349     2.607781
H     -0.163751     0.855136     1.877864
H      0.291671     2.275670     2.361551
O     -1.949830    -2.734697     0.889703
H     -2.584009    -2.204144     1.367376
H     -1.302316    -2.065112     0.692981
$end

$rem
JOBTYPE          eda
EDA2             1
METHOD           wB97M-V
BASIS            def2-TZVPPD
SYMMETRY         false
MEM_TOTAL        50000
MEM_STATIC       10000
THRESH           14
SCF_CONVERGENCE  8
XC_GRID          000099000590
NL_GRID          1
EDA_CLS_DISP     true
FD_MAT_VEC_PROD  FALSE
$end
