$molecule
-1 1
--
-1 1
Cl     0.000000     0.000000     0.000000
--
0 1
O      0.823380    -1.352973    -3.021871
H      1.752854    -1.586619    -2.681171
H      0.487876    -0.873730    -2.261775
O      2.523281     0.075105     2.141624
H      2.081558    -0.483417     2.754013
H      1.877416     0.285763     1.482632
O      2.650784     1.254153    -1.136163
H      2.401662     1.605478    -1.971241
H      1.924731     0.699704    -0.891412
O     -0.306264     2.928050     0.541310
H      0.380642     3.308514     1.104799
H      0.073139     2.191299     0.141775
O     -1.011167     1.396698    -2.618018
H     -0.727764     2.280068    -2.348939
H     -0.878256     0.893634    -1.790117
$end

$rem
JOBTYPE          eda
EDA2             1
METHOD           wB97M-V
BASIS            def2-TZVPPD
SYMMETRY         false
MEM_TOTAL        50000
MEM_STATIC       10000
THRESH           14
SCF_CONVERGENCE  8
XC_GRID          000099000590
NL_GRID          1
EDA_CLS_DISP     true
FD_MAT_VEC_PROD  FALSE
$end
