$molecule
-1 1
--
-1 1
Cl     0.000000     0.000000     0.000000
--
0 1
O      2.141828    -1.926721     1.172770
H      2.506845    -2.704525     0.813382
H      1.387579    -1.666552     0.663666
O     -1.667403    -0.134156    -2.964265
H     -1.403386     0.216697    -2.118502
H     -1.930230     0.658899    -3.498868
O      1.685848     1.175691    -2.172477
H      2.426841     0.570382    -2.393280
H      1.275175     0.748865    -1.444869
O     -2.150305    -0.295435     2.705843
H     -1.521020    -0.158825     2.012721
H     -1.597698    -0.371338     3.511263
O     -2.367779    -2.039496    -0.941391
H     -1.594146    -1.458780    -0.729704
H     -2.441774    -2.608355    -0.193390
$end

$rem
JOBTYPE          eda
EDA2             1
METHOD           wB97M-V
BASIS            def2-TZVPPD
SYMMETRY         false
MEM_TOTAL        50000
MEM_STATIC       10000
THRESH           14
SCF_CONVERGENCE  8
XC_GRID          000099000590
NL_GRID          1
EDA_CLS_DISP     true
FD_MAT_VEC_PROD  FALSE
$end
