$molecule
-1 1
--
-1 1
Cl     0.000000     0.000000     0.000000
--
0 1
O      3.121084    -0.404087    -0.885356
H      3.116609    -0.372361    -1.845845
H      2.192719    -0.330448    -0.616616
O     -2.819140     1.570254    -0.734010
H     -2.611282     1.796412    -1.725910
H     -2.014272     1.104724    -0.433930
O      0.369494     3.158235     0.273032
H      0.266849     2.267125    -0.149408
H      0.062383     2.931659     1.171278
O      1.432734     1.306996     2.864927
H      1.572932     0.422647     3.152455
H      1.365478     1.291318     1.910667
O     -1.816873    -2.925684    -0.245655
H     -1.793579    -2.165113     0.358356
H     -2.001121    -3.664882     0.343775
O      0.586581     0.286046    -3.368714
H      0.417037     1.203796    -3.600248
H      0.414413     0.201701    -2.417327
$end

$rem
JOBTYPE          eda
EDA2             1
METHOD           wB97M-V
BASIS            def2-TZVPPD
SYMMETRY         false
MEM_TOTAL        50000
MEM_STATIC       10000
THRESH           14
SCF_CONVERGENCE  8
XC_GRID          000099000590
NL_GRID          1
EDA_CLS_DISP     true
FD_MAT_VEC_PROD  FALSE
$end
