$molecule
-1 1
--
-1 1
Cl     0.000000     0.000000     0.000000
--
0 1
O     -3.072186    -0.943385    -1.151340
H     -2.109297    -0.833410    -1.232254
H     -3.480580    -0.069519    -1.336406
O     -2.170564     2.085398    -0.537936
H     -1.492369     1.468992    -0.217548
H     -1.948541     2.234535    -1.504709
O      1.715914     2.702458    -1.046000
H      2.231407     2.871279    -1.844869
H      1.155635     1.946575    -1.231334
O     -0.734965     0.285092    -3.206055
H     -0.613228     0.151032    -2.243593
H     -0.192858     1.041459    -3.457951
O     -1.691451    -2.961899     0.571525
H     -1.220428    -3.805275     0.457431
H     -1.045938    -2.256831     0.320946
$end

$rem
JOBTYPE          eda
EDA2             1
METHOD           wB97M-V
BASIS            def2-TZVPPD
SYMMETRY         false
MEM_TOTAL        50000
MEM_STATIC       10000
THRESH           14
SCF_CONVERGENCE  8
XC_GRID          000099000590
NL_GRID          1
EDA_CLS_DISP     true
FD_MAT_VEC_PROD  FALSE
$end
