$molecule
-1 1
--
-1 1
Cl     0.000000     0.000000     0.000000
--
0 1
O      2.229770     1.789189     1.621983
H      1.631070     1.514205     0.937078
H      3.095321     1.957227     1.201820
O     -0.849762    -1.714934    -2.358862
H     -0.445959    -1.021397    -2.934249
H     -1.069056    -1.384646    -1.506905
O     -0.610764     3.422499    -0.224439
H     -0.451227     2.515491    -0.613530
H      0.104167     4.032667    -0.497019
O     -3.173880     0.131157     1.037539
H     -2.298199     0.065462     0.589628
H     -2.996396     0.503443     1.848118
$end

$rem
JOBTYPE          eda
EDA2             1
METHOD           wB97M-V
BASIS            def2-TZVPPD
SYMMETRY         false
MEM_TOTAL        50000
MEM_STATIC       10000
THRESH           14
SCF_CONVERGENCE  8
XC_GRID          000099000590
NL_GRID          1
EDA_CLS_DISP     true
FD_MAT_VEC_PROD  FALSE
$end
