$molecule
-1 1
--
-1 1
Cl     0.000000     0.000000     0.000000
--
0 1
O      3.232758    -0.679143     0.998305
H      2.352463    -0.253635     0.918000
H      3.312977    -1.122656     1.834457
O     -2.454936    -1.285230     1.810301
H     -2.196769    -2.160432     1.613182
H     -1.954067    -0.746562     1.210287
O      0.873783     0.373195    -3.146906
H      0.360272     0.651094    -2.330817
H      0.607163    -0.517887    -3.260182
O     -1.303045     2.387289    -1.279544
H     -0.857699     1.743440    -0.735850
H     -1.694295     1.907056    -2.005066
O      0.564214     2.052023     2.184843
H      1.485460     2.275701     2.191810
H      0.459226     1.382168     1.506702
$end

$rem
JOBTYPE          eda
EDA2             1
METHOD           wB97M-V
BASIS            def2-TZVPPD
SYMMETRY         false
MEM_TOTAL        50000
MEM_STATIC       10000
THRESH           14
SCF_CONVERGENCE  8
XC_GRID          000099000590
NL_GRID          1
EDA_CLS_DISP     true
FD_MAT_VEC_PROD  FALSE
$end
