$molecule
-1 1
--
-1 1
Cl     0.000000     0.000000     0.000000
--
0 1
O     -0.530148    -2.541396     2.339857
H      0.120897    -3.202570     2.327133
H     -0.132628    -1.880997     1.716211
O     -3.000928    -1.352034     0.154153
H     -2.071433    -1.106112     0.036891
H     -3.306104    -0.958508     1.007444
O      1.266958    -0.619388    -2.939972
H      1.004602    -0.223763    -2.097255
H      2.223231    -0.656263    -2.974201
O      1.279146    -2.624031    -0.164319
H      0.765925    -1.837237    -0.085508
H      0.822661    -3.176240    -0.835511
O      2.570326     0.754051     2.126946
H      2.553981     1.080305     3.025190
H      1.674012     0.429569     1.888366
$end

$rem
JOBTYPE          eda
EDA2             1
METHOD           wB97M-V
BASIS            def2-TZVPPD
SYMMETRY         false
MEM_TOTAL        50000
MEM_STATIC       10000
THRESH           14
SCF_CONVERGENCE  8
XC_GRID          000099000590
NL_GRID          1
EDA_CLS_DISP     true
FD_MAT_VEC_PROD  FALSE
$end
