$molecule
-1 1
--
-1 1
Cl     0.000000     0.000000     0.000000
--
0 1
O      2.811402     1.308917    -0.646326
H      3.234332     1.474802     0.204983
H      1.945733     1.073091    -0.492024
O     -0.273559     0.917934     3.152329
H      0.136827     0.212370     3.671469
H     -0.689970     0.389828     2.431398
O      1.522141    -0.653873    -2.674542
H      1.073915    -0.132792    -3.377375
H      0.886423    -0.702472    -1.962450
O     -2.674822     0.576166    -1.781221
H     -1.954057     0.567322    -1.167115
H     -2.728762     1.502340    -2.123526
O      0.142016    -3.064361    -0.765164
H      0.999542    -3.491946    -0.855143
H      0.263409    -2.296723    -0.197218
$end

$rem
JOBTYPE          eda
EDA2             1
METHOD           wB97M-V
BASIS            def2-TZVPPD
SYMMETRY         false
MEM_TOTAL        50000
MEM_STATIC       10000
THRESH           14
SCF_CONVERGENCE  8
XC_GRID          000099000590
NL_GRID          1
EDA_CLS_DISP     true
FD_MAT_VEC_PROD  FALSE
$end
