$molecule
-1 1
--
-1 1
Cl     0.000000     0.000000     0.000000
--
0 1
O      1.697875     2.812156    -0.064854
H      1.661557     3.150216     0.885145
H      1.369173     1.911949    -0.005570
O      2.612789    -0.037192     1.821798
H      1.866734    -0.055376     1.210788
H      3.305740     0.353047     1.299827
O     -0.939614    -2.784060    -1.739328
H     -1.213754    -3.715577    -1.660327
H     -0.254384    -2.702145    -1.078967
O     -0.798589     1.117862     3.058410
H     -0.409022     0.795271     3.907486
H     -0.301269     0.718251     2.313142
O     -3.076715     0.941408     0.114922
H     -2.926424     0.271835    -0.596134
H     -2.124851     1.261653     0.395401
$end

$rem
JOBTYPE          eda
EDA2             1
METHOD           wB97M-V
BASIS            def2-TZVPPD
SYMMETRY         false
MEM_TOTAL        50000
MEM_STATIC       10000
THRESH           14
SCF_CONVERGENCE  8
XC_GRID          000099000590
NL_GRID          1
EDA_CLS_DISP     true
FD_MAT_VEC_PROD  FALSE
$end
