$molecule
-1 1
--
-1 1
Cl     0.000000     0.000000     0.000000
--
0 1
O      0.923800     0.408945    -3.194493
H      0.272905    -0.114701    -3.625352
H      0.832172     0.185801    -2.298947
O     -2.149744     2.054070     0.217609
H     -1.403826     1.455993     0.053234
H     -2.334377     1.897274     1.183531
O     -0.300157    -2.869195     1.420956
H     -0.867771    -3.254414     0.744974
H      0.097773    -2.075737     1.017545
O      1.448917     0.712721     2.656163
H      1.296456     0.906343     1.730539
H      0.664996     0.886631     3.121181
O     -2.509108    -1.248524    -1.805840
H     -1.802638    -0.777252    -1.256016
H     -2.458071    -2.098524    -1.337245
$end

$rem
JOBTYPE          eda
EDA2             1
METHOD           wB97M-V
BASIS            def2-TZVPPD
SYMMETRY         false
MEM_TOTAL        50000
MEM_STATIC       10000
THRESH           14
SCF_CONVERGENCE  8
XC_GRID          000099000590
NL_GRID          1
EDA_CLS_DISP     true
FD_MAT_VEC_PROD  FALSE
$end
