$molecule
-1 1
--
-1 1
Cl     0.000000     0.000000     0.000000
--
0 1
O      1.279422     1.813072     2.395684
H      0.682919     1.310388     1.792513
H      1.966367     1.174297     2.713761
O      0.654636     0.433879    -3.071352
H      0.416601     0.627639    -2.150429
H      1.079299    -0.421006    -3.057450
O     -2.751681    -1.662134    -0.715478
H     -1.767176    -1.405085    -0.782986
H     -2.615721    -2.522329    -0.314722
O     -0.054526    -2.456372     1.915545
H     -0.644121    -2.325736     2.724853
H     -0.025853    -1.607846     1.466047
$end

$rem
JOBTYPE          eda
EDA2             1
METHOD           wB97M-V
BASIS            def2-TZVPPD
SYMMETRY         false
MEM_TOTAL        50000
MEM_STATIC       10000
THRESH           14
SCF_CONVERGENCE  8
XC_GRID          000099000590
NL_GRID          1
EDA_CLS_DISP     true
FD_MAT_VEC_PROD  FALSE
$end
