$molecule
-1 1
--
-1 1
Cl     0.000000     0.000000     0.000000
--
0 1
O     -0.939928     3.138189    -0.000936
H     -0.820702     2.238321     0.375766
H     -0.712248     3.077225    -0.943590
O      1.774428     1.345338    -2.573145
H      1.119620     1.302239    -1.824535
H      1.660456     2.173050    -2.996113
O     -2.265274    -2.324267     0.705293
H     -2.834139    -2.738348     0.091603
H     -1.824269    -1.638760     0.205252
O      0.930253    -0.455464     2.995589
H      0.429133     0.276974     3.481595
H      0.852726    -0.389826     2.071742
$end

$rem
JOBTYPE          eda
EDA2             1
METHOD           wB97M-V
BASIS            def2-TZVPPD
SYMMETRY         false
MEM_TOTAL        50000
MEM_STATIC       10000
THRESH           14
SCF_CONVERGENCE  8
XC_GRID          000099000590
NL_GRID          1
EDA_CLS_DISP     true
FD_MAT_VEC_PROD  FALSE
$end
