$molecule
-1 1
--
-1 1
Cl     0.000000     0.000000     0.000000
--
0 1
O     -2.352563    -2.000689    -0.906334
H     -1.879597    -2.743087    -1.222228
H     -1.947468    -1.507597    -0.165024
O     -2.041171     2.009674     1.692703
H     -2.902501     1.850932     1.214944
H     -1.359904     1.646238     1.074740
O      2.186425    -0.135659    -2.521759
H      2.037414    -0.257688    -1.583007
H      2.794119     0.578731    -2.754986
O      0.632001     3.009939    -1.372366
H      0.410937     2.899813    -2.278973
H      0.580960     2.129556    -0.959031
O      2.420754    -1.652381     1.758642
H      1.510958    -1.626298     1.492702
H      2.689538    -2.613340     1.613522
O      1.643151     1.143126     2.627037
H      2.423544     1.465652     2.192753
H      1.056724     0.905893     1.868423
$end

$rem
JOBTYPE          eda
EDA2             1
METHOD           wB97M-V
BASIS            def2-TZVPPD
SYMMETRY         false
MEM_TOTAL        50000
MEM_STATIC       10000
THRESH           14
SCF_CONVERGENCE  8
XC_GRID          000099000590
NL_GRID          1
EDA_CLS_DISP     true
FD_MAT_VEC_PROD  FALSE
$end
