$molecule
-1 1
--
-1 1
Br     0.000000     0.000000     0.000000
--
0 1
O     -2.849832     1.193942    -1.826212
H     -1.931928     1.207032    -1.575616
H     -2.940118     0.369058    -2.291841
O      3.301686    -0.334450    -0.377123
H      2.396533    -0.045027    -0.274515
H      3.799968     0.084606     0.318721
O     -0.087440     3.511872     0.501620
H      0.781254     4.031099     0.240035
H     -0.046340     2.573718     0.235001
O      0.762499     2.499028    -2.179473
H      0.529887     2.070563    -3.000811
H      0.722495     1.889826    -1.445165
O     -1.395787    -1.285353    -2.578759
H     -0.708440    -1.470841    -3.234854
H     -0.928793    -0.644101    -2.033967
$end

$rem
JOBTYPE          eda
EDA2             1
METHOD           wB97M-V
BASIS            def2-TZVPPD
SYMMETRY         false
MEM_TOTAL        50000
MEM_STATIC       10000
THRESH           14
SCF_CONVERGENCE  8
XC_GRID          000099000590
NL_GRID          1
EDA_CLS_DISP     true
FD_MAT_VEC_PROD  FALSE
$end
