$molecule
-1 1
--
-1 1
Br     0.000000     0.000000     0.000000
--
0 1
O     -2.333005    -2.573527    -0.291127
H     -3.133171    -2.528310     0.371069
H     -1.787717    -1.837861    -0.137174
O      1.371021     2.985621    -0.728227
H      1.616172     3.427381     0.066995
H      1.180208     2.097681    -0.432288
O     -2.377910     2.369996     0.456820
H     -1.695206     2.554222     1.124779
H     -1.990682     1.663103    -0.153605
O     -2.461469    -0.687997     2.047974
H     -1.760234    -0.273058     1.493838
H     -3.296296    -0.283233     1.747665
O     -0.226095     0.748349    -3.395531
H      0.694620     0.580593    -3.071989
H     -0.938329     0.679073    -2.701236
$end

$rem
JOBTYPE          eda
EDA2             1
METHOD           wB97M-V
BASIS            def2-TZVPPD
SYMMETRY         false
MEM_TOTAL        50000
MEM_STATIC       10000
THRESH           14
SCF_CONVERGENCE  8
XC_GRID          000099000590
NL_GRID          1
EDA_CLS_DISP     true
FD_MAT_VEC_PROD  FALSE
$end
