$molecule
-1 1
--
-1 1
Br     0.000000     0.000000     0.000000
--
0 1
O     -0.389734    -0.598419    -3.176388
H     -0.465508     0.292966    -3.519841
H      0.113003    -0.512129    -2.347686
O      1.397414     3.038515     0.513452
H      0.940691     3.150955     1.319867
H      1.055355     2.289705     0.200989
O      1.276458    -2.240841     2.084055
H      2.053789    -2.628877     1.781351
H      0.942450    -1.517205     1.560668
O      2.870105    -1.015920    -1.248286
H      3.514743    -0.967933    -0.518971
H      2.050698    -0.852438    -0.717526
O     -1.016719     3.064452    -1.085676
H     -1.384642     2.386952    -1.618609
H     -0.007287     3.049352    -1.229396
$end

$rem
JOBTYPE          eda
EDA2             1
METHOD           wB97M-V
BASIS            def2-TZVPPD
SYMMETRY         false
MEM_TOTAL        50000
MEM_STATIC       10000
THRESH           14
SCF_CONVERGENCE  8
XC_GRID          000099000590
NL_GRID          1
EDA_CLS_DISP     true
FD_MAT_VEC_PROD  FALSE
$end
