$molecule
-1 1
--
-1 1
Br     0.000000     0.000000     0.000000
--
0 1
O      2.375991     1.403050     1.759821
H      1.608804     1.035722     1.188101
H      3.062120     1.668836     1.129100
O      2.883715    -1.624042    -0.731104
H      3.463684    -1.974029    -0.037743
H      2.061357    -1.406903    -0.251967
$end

$rem
JOBTYPE          eda
EDA2             1
METHOD           wB97M-V
BASIS            def2-TZVPPD
SYMMETRY         false
MEM_TOTAL        50000
MEM_STATIC       10000
THRESH           14
SCF_CONVERGENCE  8
XC_GRID          000099000590
NL_GRID          1
EDA_CLS_DISP     true
FD_MAT_VEC_PROD  FALSE
$end
