$molecule
-1 1
--
-1 1
Br     0.000000     0.000000     0.000000
--
0 1
O     -0.715270    -2.143185    -2.690953
H     -0.563893    -1.589694    -1.915422
H     -1.625719    -2.500042    -2.562483
O     -0.675884     1.561881     2.819312
H     -0.778240     0.984108     2.081935
H     -0.783142     0.966168     3.565114
O      3.548531     0.288888     0.674836
H      3.267816     0.447228    -0.188013
H      2.925434     0.795554     1.221031
O      0.805282    -3.287647     0.275183
H      0.393183    -3.703796    -0.501561
H      0.316995    -2.472699     0.427040
O      0.567571     0.362353    -3.511137
H      0.176105    -0.507486    -3.248833
H      0.283747     0.465117    -4.388978
O     -3.239559    -1.622188     0.083527
H     -3.422506    -1.982973     0.976307
H     -2.282082    -1.379107     0.094225
O     -2.191170     2.688530    -0.728488
H     -2.809150     2.418920    -1.425226
H     -1.544401     2.015253    -0.624480
$end

$rem
JOBTYPE          eda
EDA2             1
METHOD           wB97M-V
BASIS            def2-TZVPPD
SYMMETRY         false
MEM_TOTAL        50000
MEM_STATIC       10000
THRESH           14
SCF_CONVERGENCE  8
XC_GRID          000099000590
NL_GRID          1
EDA_CLS_DISP     true
FD_MAT_VEC_PROD  FALSE
$end
