$molecule
-1 1
--
-1 1
Br     0.000000     0.000000     0.000000
--
0 1
O     -1.940430    -2.565513     0.899073
H     -2.030209    -2.518827     1.877284
H     -1.295089    -1.914109     0.676999
O      0.553447     2.582178     2.321146
H      0.620745     1.665940     2.488208
H      1.397611     2.901012     2.170963
O     -1.302614    -1.622954    -2.889180
H     -1.645295    -0.838258    -3.392872
H     -0.914137    -1.279381    -2.076378
O      2.785557    -0.938036    -1.642619
H      3.238266    -1.550119    -1.047537
H      2.005838    -0.710489    -1.193734
O      0.626728     2.977561    -1.391010
H     -0.065650     2.917648    -2.116526
H      1.310986     2.330535    -1.671214
$end

$rem
JOBTYPE          eda
EDA2             1
METHOD           wB97M-V
BASIS            def2-TZVPPD
SYMMETRY         false
MEM_TOTAL        50000
MEM_STATIC       10000
THRESH           14
SCF_CONVERGENCE  8
XC_GRID          000099000590
NL_GRID          1
EDA_CLS_DISP     true
FD_MAT_VEC_PROD  FALSE
$end
