$molecule
-1 1
--
-1 1
Br     0.000000     0.000000     0.000000
--
0 1
O      0.537883    -2.592701     1.926681
H     -0.386009    -2.598137     2.112065
H      0.722606    -1.933912     1.307501
O      1.291657    -2.839776    -1.063081
H      0.556916    -2.277466    -0.805116
H      1.883573    -2.161705    -1.372666
O     -1.874314    -0.408243     2.636827
H     -1.328717    -0.039733     1.938784
H     -2.727285    -0.453675     2.229542
$end

$rem
JOBTYPE          eda
EDA2             1
METHOD           wB97M-V
BASIS            def2-TZVPPD
SYMMETRY         false
MEM_TOTAL        50000
MEM_STATIC       10000
THRESH           14
SCF_CONVERGENCE  8
XC_GRID          000099000590
NL_GRID          1
EDA_CLS_DISP     true
FD_MAT_VEC_PROD  FALSE
$end
