$molecule
-1 1
--
-1 1
Br     0.000000     0.000000     0.000000
--
0 1
O      1.521234     1.209788    -2.685367
H      2.096141     0.409973    -2.642532
H      1.413599     1.432485    -3.599181
O      2.137029    -0.858665     2.437340
H      1.531524    -0.762129     1.688950
H      1.596637    -0.978037     3.206662
O      1.238938     1.972390     2.398987
H      0.860966     1.485662     1.615154
H      1.150578     1.320561     3.162309
O      0.117012    -3.331974     0.636691
H      0.665240    -3.509200     1.434153
H      0.025395    -2.338891     0.576819
O     -1.361959    -0.368772     3.303538
H     -0.708171    -0.442974     3.989043
H     -0.893664    -0.189371     2.459854
O     -1.248477     2.143362    -2.447598
H     -0.346353     1.847909    -2.331410
H     -1.185038     2.892626    -1.867573
$end

$rem
JOBTYPE          eda
EDA2             1
METHOD           wB97M-V
BASIS            def2-TZVPPD
SYMMETRY         false
MEM_TOTAL        50000
MEM_STATIC       10000
THRESH           14
SCF_CONVERGENCE  8
XC_GRID          000099000590
NL_GRID          1
EDA_CLS_DISP     true
FD_MAT_VEC_PROD  FALSE
$end
