$molecule
-1 1
--
-1 1
Br     0.000000     0.000000     0.000000
--
0 1
O      0.779723     2.101047     2.199835
H      0.426021     1.474308     1.520328
H      0.408280     2.960514     1.936831
O      1.680523    -2.227455     1.670762
H      1.216158    -1.563865     1.147402
H      2.593395    -1.916082     1.738707
O     -2.177205    -0.865000     2.509215
H     -2.496326     0.047270     2.768170
H     -1.471994    -0.874637     1.842706
O      3.480100    -0.005299    -0.932052
H      2.930060    -0.789766    -1.221807
H      3.669445     0.562215    -1.658308
$end

$rem
JOBTYPE          eda
EDA2             1
METHOD           wB97M-V
BASIS            def2-TZVPPD
SYMMETRY         false
MEM_TOTAL        50000
MEM_STATIC       10000
THRESH           14
SCF_CONVERGENCE  8
XC_GRID          000099000590
NL_GRID          1
EDA_CLS_DISP     true
FD_MAT_VEC_PROD  FALSE
$end
