$molecule
-1 1
--
-1 1
Br     0.000000     0.000000     0.000000
--
0 1
O     -1.375620     3.047926    -1.337998
H     -0.877399     3.716957    -0.861773
H     -0.951090     2.166142    -1.171486
O      2.709632    -1.863457     0.517570
H      2.540301    -2.686032     0.113931
H      1.960279    -1.257251     0.338176
O     -1.907275    -2.478936    -1.045372
H     -1.364393    -1.760338    -0.788272
H     -2.530730    -2.108684    -1.652647
$end

$rem
JOBTYPE          eda
EDA2             1
METHOD           wB97M-V
BASIS            def2-TZVPPD
SYMMETRY         false
MEM_TOTAL        50000
MEM_STATIC       10000
THRESH           14
SCF_CONVERGENCE  8
XC_GRID          000099000590
NL_GRID          1
EDA_CLS_DISP     true
FD_MAT_VEC_PROD  FALSE
$end
