$molecule
-1 1
--
-1 1
Br     0.000000     0.000000     0.000000
--
0 1
O      1.933199     1.986490     1.808234
H      1.215137     1.668912     1.233648
H      2.279603     2.831188     1.447197
O     -2.110295     2.665636     0.091665
H     -1.505616     1.895002     0.152179
H     -1.513127     3.456853    -0.085606
O      0.395690    -0.651139     3.487777
H      0.093477    -0.316228     2.602410
H      0.310350    -1.614550     3.373877
$end

$rem
JOBTYPE          eda
EDA2             1
METHOD           wB97M-V
BASIS            def2-TZVPPD
SYMMETRY         false
MEM_TOTAL        50000
MEM_STATIC       10000
THRESH           14
SCF_CONVERGENCE  8
XC_GRID          000099000590
NL_GRID          1
EDA_CLS_DISP     true
FD_MAT_VEC_PROD  FALSE
$end
