$molecule
-1 1
--
-1 1
Br     0.000000     0.000000     0.000000
--
0 1
O      0.907785    -3.270542     0.005052
H      0.638022    -2.382067     0.033667
H      1.487598    -3.318185     0.780281
O     -0.442867    -1.493360     2.705895
H     -0.557517    -2.505349     2.636657
H     -0.309218    -1.143022     1.794908
O      3.300513    -1.122755    -0.539692
H      3.130969    -1.988896    -0.865131
H      2.387446    -0.783323    -0.362168
O     -1.677447     1.488794     2.663873
H     -1.236549     1.357234     3.514456
H     -1.130855     0.928758     2.068196
O      2.470751    -0.161330     2.335308
H      2.923351    -1.018032     2.221032
H      1.582633    -0.292052     2.024141
$end

$rem
JOBTYPE          eda
EDA2             1
METHOD           wB97M-V
BASIS            def2-TZVPPD
SYMMETRY         false
MEM_TOTAL        50000
MEM_STATIC       10000
THRESH           14
SCF_CONVERGENCE  8
XC_GRID          000099000590
NL_GRID          1
EDA_CLS_DISP     true
FD_MAT_VEC_PROD  FALSE
$end
