$molecule
-1 1
--
-1 1
Br     0.000000     0.000000     0.000000
--
0 1
O     -2.018814     1.297243     2.271203
H     -1.624924     1.929481     2.858206
H     -1.319651     1.058009     1.655548
O      2.992256     0.142962     1.185442
H      2.076229    -0.027513     0.900949
H      3.011154     0.890364     1.822388
O      1.638357    -0.919045    -3.055647
H      2.042760    -0.288329    -3.647520
H      1.415696    -0.537243    -2.199502
$end

$rem
JOBTYPE          eda
EDA2             1
METHOD           wB97M-V
BASIS            def2-TZVPPD
SYMMETRY         false
MEM_TOTAL        50000
MEM_STATIC       10000
THRESH           14
SCF_CONVERGENCE  8
XC_GRID          000099000590
NL_GRID          1
EDA_CLS_DISP     true
FD_MAT_VEC_PROD  FALSE
$end
