$molecule
-1 1
--
-1 1
Br     0.000000     0.000000     0.000000
--
0 1
O     -0.039065     1.360465    -3.062156
H     -0.212638     0.478259    -3.493798
H      0.045206     1.278611    -2.107441
O     -2.989528     1.408932     0.945248
H     -2.062048     1.043559     0.850710
H     -2.903099     2.019723     1.687443
O     -2.974629    -1.593570    -0.781374
H     -2.231751    -1.030002    -0.687159
H     -2.758326    -2.380343    -0.265965
O      0.721300     2.711650     2.171943
H      1.708723     2.884228     1.993117
H      0.459653     1.920161     1.656005
$end

$rem
JOBTYPE          eda
EDA2             1
METHOD           wB97M-V
BASIS            def2-TZVPPD
SYMMETRY         false
MEM_TOTAL        50000
MEM_STATIC       10000
THRESH           14
SCF_CONVERGENCE  8
XC_GRID          000099000590
NL_GRID          1
EDA_CLS_DISP     true
FD_MAT_VEC_PROD  FALSE
$end
