$molecule
-1 1
--
-1 1
Br     0.000000     0.000000     0.000000
--
0 1
O     -3.013040     1.056931    -1.652607
H     -3.813809     1.223376    -2.275182
H     -2.526972     0.362284    -2.116240
O      1.719771     0.511071     2.753016
H      1.308822     0.434263     1.867281
H      1.064406     1.091765     3.184491
O      2.086628    -1.623677    -2.132399
H      1.634885    -1.468970    -1.284862
H      2.494299    -0.787280    -2.350925
O      1.986251    -2.482713     1.611018
H      2.888043    -2.189647     1.545517
H      1.404825    -1.913044     1.045753
O     -1.890204    -2.588045    -0.295930
H     -1.108235    -1.992414    -0.188325
H     -2.004398    -3.102901     0.508548
$end

$rem
JOBTYPE          eda
EDA2             1
METHOD           wB97M-V
BASIS            def2-TZVPPD
SYMMETRY         false
MEM_TOTAL        50000
MEM_STATIC       10000
THRESH           14
SCF_CONVERGENCE  8
XC_GRID          000099000590
NL_GRID          1
EDA_CLS_DISP     true
FD_MAT_VEC_PROD  FALSE
$end
