$molecule
-1 1
--
-1 1
Br     0.000000     0.000000     0.000000
--
0 1
O     -0.134210     2.411128    -2.072805
H      0.609473     1.830673    -2.287997
H     -0.403434     2.300933    -1.141755
O     -1.310303    -2.052809     2.019950
H     -0.550126    -2.646822     1.949115
H     -1.196439    -1.381497     1.375027
O     -3.132579     0.001629    -1.095278
H     -2.256450    -0.233826    -0.636847
H     -2.985203    -0.177030    -2.038425
$end

$rem
JOBTYPE          eda
EDA2             1
METHOD           wB97M-V
BASIS            def2-TZVPPD
SYMMETRY         false
MEM_TOTAL        50000
MEM_STATIC       10000
THRESH           14
SCF_CONVERGENCE  8
XC_GRID          000099000590
NL_GRID          1
EDA_CLS_DISP     true
FD_MAT_VEC_PROD  FALSE
$end
