$molecule
-1 1
--
-1 1
Br     0.000000     0.000000     0.000000
--
0 1
O     -0.944159     0.763135    -3.171296
H     -0.418125     0.642488    -2.380292
H     -1.515592     1.518947    -2.946457
O      0.266373    -2.666671    -2.063433
H     -0.507967    -3.216325    -2.144357
H      0.169069    -1.929715    -1.427717
O      2.278924     0.586830    -2.040328
H      1.783721    -0.048625    -1.465647
H      2.356833     0.210882    -2.962479
O     -0.660034     3.338372    -0.252519
H     -0.523899     2.351649    -0.216782
H     -0.034580     3.514831    -0.970765
$end

$rem
JOBTYPE          eda
EDA2             1
METHOD           wB97M-V
BASIS            def2-TZVPPD
SYMMETRY         false
MEM_TOTAL        50000
MEM_STATIC       10000
THRESH           14
SCF_CONVERGENCE  8
XC_GRID          000099000590
NL_GRID          1
EDA_CLS_DISP     true
FD_MAT_VEC_PROD  FALSE
$end
