$molecule
-1 1
--
-1 1
Br     0.000000     0.000000     0.000000
--
0 1
O     -0.589641     1.981122    -2.700950
H     -0.352083     1.498565    -1.927478
H      0.291278     2.138304    -3.079812
O     -0.614349     3.140419     0.660389
H     -1.466447     3.242082     0.197508
H     -0.129896     2.300579     0.382244
O      1.920213    -0.518193     2.687699
H      2.197835     0.425939     2.874306
H      1.083802    -0.483503     2.156645
O     -1.496158    -2.247040     1.826228
H     -1.236232    -1.353537     1.456673
H     -0.761899    -2.827253     1.477870
O     -0.445692     1.514137     3.176920
H     -0.182736     0.818354     3.872867
H     -0.524766     1.099695     2.328947
O     -3.061657     0.895335    -0.093977
H     -2.099177     0.663244     0.089351
H     -3.264239     0.403587    -0.926203
$end

$rem
JOBTYPE          eda
EDA2             1
METHOD           wB97M-V
BASIS            def2-TZVPPD
SYMMETRY         false
MEM_TOTAL        50000
MEM_STATIC       10000
THRESH           14
SCF_CONVERGENCE  8
XC_GRID          000099000590
NL_GRID          1
EDA_CLS_DISP     true
FD_MAT_VEC_PROD  FALSE
$end
