$molecule
-1 1
--
-1 1
Br     0.000000     0.000000     0.000000
--
0 1
O     -1.911432     2.433986     1.070897
H     -1.555279     3.089706     1.640643
H     -1.224968     1.718194     1.109894
O     -1.401665     2.429875    -1.811153
H     -1.959056     2.676358    -1.041095
H     -0.686385     1.866479    -1.500724
O     -1.794280    -2.241072     2.073482
H     -1.722283    -2.617890     2.966158
H     -1.034366    -1.621705     2.007902
O      2.505713    -0.505921     1.723979
H      1.700403    -0.507406     1.113190
H      2.107247    -0.320223     2.595222
O      2.946339    -0.264625    -1.581763
H      3.334716     0.559035    -1.244785
H      2.261634    -0.356773    -0.924585
$end

$rem
JOBTYPE          eda
EDA2             1
METHOD           wB97M-V
BASIS            def2-TZVPPD
SYMMETRY         false
MEM_TOTAL        50000
MEM_STATIC       10000
THRESH           14
SCF_CONVERGENCE  8
XC_GRID          000099000590
NL_GRID          1
EDA_CLS_DISP     true
FD_MAT_VEC_PROD  FALSE
$end
