$molecule
-1 1
--
-1 1
Br     0.000000     0.000000     0.000000
--
0 1
O      0.782416    -0.121722     3.451600
H      0.936067    -0.092172     2.515779
H      1.418512     0.518629     3.809706
O      1.279830    -3.033150    -0.407853
H      0.932121    -2.105125    -0.536490
H      0.609558    -3.519657    -0.884449
O      1.071152     0.493703    -3.362487
H      0.775103     0.547864    -2.430413
H      1.344659     1.412062    -3.545358
O      3.119203     1.381929    -0.509772
H      2.304215     1.804893    -0.549245
H      2.978825     0.669854     0.131836
O     -2.613665     2.025634    -0.945890
H     -1.791721     1.633691    -0.632163
H     -3.281718     1.715110    -0.285048
O      1.070902     3.348536    -0.645640
H      1.491858     4.117923    -0.937238
H      0.258142     3.643921    -0.280463
$end

$rem
JOBTYPE          eda
EDA2             1
METHOD           wB97M-V
BASIS            def2-TZVPPD
SYMMETRY         false
MEM_TOTAL        50000
MEM_STATIC       10000
THRESH           14
SCF_CONVERGENCE  8
XC_GRID          000099000590
NL_GRID          1
EDA_CLS_DISP     true
FD_MAT_VEC_PROD  FALSE
$end
