$molecule
-1 1
--
-1 1
Br     0.000000     0.000000     0.000000
--
0 1
O      1.548803    -0.710591     3.040000
H      0.898652    -0.539982     2.353961
H      1.060812    -1.118901     3.781649
O      0.137519    -0.423573    -3.463886
H     -0.133520    -0.725311    -2.600673
H     -0.032708    -1.196669    -3.995500
O     -2.010270    -2.265977     1.576016
H     -1.353894    -1.831518     1.044048
H     -2.834302    -1.936376     1.192922
O     -0.016933    -2.910328    -1.674653
H     -0.135970    -2.167692    -1.070498
H      0.453271    -3.621303    -1.199784
O      3.384032    -0.837063    -0.115591
H      3.644167    -1.658433    -0.579572
H      2.425456    -0.765354    -0.030565
$end

$rem
JOBTYPE          eda
EDA2             1
METHOD           wB97M-V
BASIS            def2-TZVPPD
SYMMETRY         false
MEM_TOTAL        50000
MEM_STATIC       10000
THRESH           14
SCF_CONVERGENCE  8
XC_GRID          000099000590
NL_GRID          1
EDA_CLS_DISP     true
FD_MAT_VEC_PROD  FALSE
$end
