$molecule
-1 1
--
-1 1
Br     0.000000     0.000000     0.000000
--
0 1
O      2.811524     1.249320    -1.388987
H      1.946830     1.247401    -0.997053
H      3.333840     0.621936    -0.862941
O      0.730217    -0.632562    -3.163435
H      0.536797    -0.243198    -2.271879
H     -0.106351    -1.015408    -3.475712
O      0.512458    -2.117774     2.783375
H     -0.374234    -2.073142     3.177067
H      0.435196    -1.601621     1.947776
O     -2.791734     2.004077    -0.136779
H     -2.751611     2.294819    -1.051084
H     -2.113860     2.543174     0.294439
O      1.179334    -3.203196    -0.267623
H      1.473685    -3.396931    -1.169483
H      0.786142    -2.333499    -0.274332
O      2.267015     1.055756     2.263133
H      1.546156     0.892135     2.866249
H      2.080614     0.524899     1.492348
$end

$rem
JOBTYPE          eda
EDA2             1
METHOD           wB97M-V
BASIS            def2-TZVPPD
SYMMETRY         false
MEM_TOTAL        50000
MEM_STATIC       10000
THRESH           14
SCF_CONVERGENCE  8
XC_GRID          000099000590
NL_GRID          1
EDA_CLS_DISP     true
FD_MAT_VEC_PROD  FALSE
$end
