$molecule
-1 1
--
-1 1
Br     0.000000     0.000000     0.000000
--
0 1
O      3.099023     0.340281     1.397133
H      2.306734     0.381405     0.878260
H      3.844115     0.047231     0.936605
O      1.127680     3.159671     0.522464
H      1.378824     3.076014     1.435986
H      0.893393     2.283071     0.250242
O      0.153067    -3.161383    -1.487612
H      0.216689    -2.247035    -1.168259
H      0.001661    -3.027025    -2.433230
O     -2.154109     1.418877    -2.303659
H     -2.330310     0.966645    -3.084746
H     -1.379206     0.970868    -1.937812
O     -0.699327     0.060744     3.039694
H     -0.594770     0.380454     2.170591
H      0.152358    -0.312270     3.329137
O      0.885237     0.524743    -3.039093
H      0.866842     0.462270    -2.115711
H      0.908147     1.420376    -3.360499
$end

$rem
JOBTYPE          eda
EDA2             1
METHOD           wB97M-V
BASIS            def2-TZVPPD
SYMMETRY         false
MEM_TOTAL        50000
MEM_STATIC       10000
THRESH           14
SCF_CONVERGENCE  8
XC_GRID          000099000590
NL_GRID          1
EDA_CLS_DISP     true
FD_MAT_VEC_PROD  FALSE
$end
