$molecule
-1 1
--
-1 1
Br     0.000000     0.000000     0.000000
--
0 1
O     -2.305583    -2.407606     0.494450
H     -1.867709    -1.598552     0.196248
H     -2.635182    -2.303553     1.364687
O     -2.542743     1.435325     1.136668
H     -2.316989     2.197870     1.699100
H     -1.797245     0.909355     0.922860
O     -0.667402     0.006100     3.273615
H     -1.303297     0.663052     3.442756
H     -0.519269    -0.098645     2.327999
O      2.326692     2.113075     1.613902
H      1.497957     1.639342     1.313777
H      2.985432     1.613206     1.112036
$end

$rem
JOBTYPE          eda
EDA2             1
METHOD           wB97M-V
BASIS            def2-TZVPPD
SYMMETRY         false
MEM_TOTAL        50000
MEM_STATIC       10000
THRESH           14
SCF_CONVERGENCE  8
XC_GRID          000099000590
NL_GRID          1
EDA_CLS_DISP     true
FD_MAT_VEC_PROD  FALSE
$end
