$molecule
-1 1
--
-1 1
Br     0.000000     0.000000     0.000000
--
0 1
O     -2.719380    -0.917874     1.513340
H     -2.094607    -0.347929     1.035762
H     -3.561100    -0.822273     1.115577
O     -2.060809     2.593717    -0.859092
H     -1.688050     3.070376    -1.592003
H     -1.437597     1.870275    -0.673543
O     -0.594218    -3.396631     0.803846
H     -0.374269    -2.975147     1.697640
H     -0.649522    -2.561829     0.293830
$end

$rem
JOBTYPE          eda
EDA2             1
METHOD           wB97M-V
BASIS            def2-TZVPPD
SYMMETRY         false
MEM_TOTAL        50000
MEM_STATIC       10000
THRESH           14
SCF_CONVERGENCE  8
XC_GRID          000099000590
NL_GRID          1
EDA_CLS_DISP     true
FD_MAT_VEC_PROD  FALSE
$end
