$molecule
-1 1
--
-1 1
Br     0.000000     0.000000     0.000000
--
0 1
O      2.465274    -2.082896    -1.151644
H      2.088415    -1.327484    -0.739582
H      3.392014    -2.150807    -0.795133
O     -2.741984    -0.795186    -1.139633
H     -3.050808    -1.748838    -1.012684
H     -1.833173    -0.702090    -0.816427
O     -1.323507     2.305848    -2.078266
H     -1.377126     1.531047    -1.554944
H     -2.005493     2.942304    -1.677368
O     -1.653707     2.630529     1.100887
H     -0.964169     2.021284     0.768719
H     -1.213494     3.129397     1.794661
$end

$rem
JOBTYPE          eda
EDA2             1
METHOD           wB97M-V
BASIS            def2-TZVPPD
SYMMETRY         false
MEM_TOTAL        50000
MEM_STATIC       10000
THRESH           14
SCF_CONVERGENCE  8
XC_GRID          000099000590
NL_GRID          1
EDA_CLS_DISP     true
FD_MAT_VEC_PROD  FALSE
$end
