$molecule
-1 1
--
-1 1
Br     0.000000     0.000000     0.000000
--
0 1
O      3.287674    -0.889413    -0.174356
H      2.291823    -0.896161    -0.076636
H      3.344902    -0.512476    -1.041446
O      0.571519     3.175317    -0.846170
H      0.928904     2.305382    -0.539798
H      1.302047     3.732851    -1.068660
O      0.642149    -1.354710    -2.748407
H      0.407845    -0.866599    -1.970799
H     -0.147391    -1.177426    -3.323453
$end

$rem
JOBTYPE          eda
EDA2             1
METHOD           wB97M-V
BASIS            def2-TZVPPD
SYMMETRY         false
MEM_TOTAL        50000
MEM_STATIC       10000
THRESH           14
SCF_CONVERGENCE  8
XC_GRID          000099000590
NL_GRID          1
EDA_CLS_DISP     true
FD_MAT_VEC_PROD  FALSE
$end
