$molecule
-1 1
--
-1 1
Br     0.000000     0.000000     0.000000
--
0 1
O      2.964962     1.491294    -0.232552
H      3.167346     2.329112     0.134912
H      2.039397     1.199057     0.005168
O      2.467355    -1.133067     2.039740
H      1.833343    -1.067852     1.347526
H      2.278611    -1.962652     2.509428
O      1.685230    -2.489969    -1.505692
H      1.129809    -1.865417    -1.040823
H      2.217802    -1.919562    -2.100617
O     -1.693532    -0.769404     2.754182
H     -2.198821    -0.054616     3.172365
H     -1.091690    -0.339489     2.159721
$end

$rem
JOBTYPE          eda
EDA2             1
METHOD           wB97M-V
BASIS            def2-TZVPPD
SYMMETRY         false
MEM_TOTAL        50000
MEM_STATIC       10000
THRESH           14
SCF_CONVERGENCE  8
XC_GRID          000099000590
NL_GRID          1
EDA_CLS_DISP     true
FD_MAT_VEC_PROD  FALSE
$end
