$molecule
-1 1
--
-1 1
Br     0.000000     0.000000     0.000000
--
0 1
O      2.325004    -1.298634    -2.213133
H      2.857483    -1.255111    -1.413986
H      2.313941    -0.417505    -2.644260
O     -1.248098     0.645875    -3.275602
H     -0.485089     1.037878    -2.846501
H     -1.311819    -0.293005    -2.968019
O     -3.258963    -0.749716     1.164907
H     -2.392241    -0.545925     0.838651
H     -3.799812    -0.010076     0.950904
O     -1.050932     1.717097     2.665447
H     -0.953034     1.208500     1.826221
H     -1.159093     2.719158     2.537031
O      0.684386     2.811876    -1.890060
H      1.381221     2.308150    -2.327268
H      0.564161     2.487954    -0.988929
$end

$rem
JOBTYPE          eda
EDA2             1
METHOD           wB97M-V
BASIS            def2-TZVPPD
SYMMETRY         false
MEM_TOTAL        50000
MEM_STATIC       10000
THRESH           14
SCF_CONVERGENCE  8
XC_GRID          000099000590
NL_GRID          1
EDA_CLS_DISP     true
FD_MAT_VEC_PROD  FALSE
$end
