$molecule
-1 1
--
-1 1
Br     0.000000     0.000000     0.000000
--
0 1
O     -0.511209    -1.596324     2.879646
H     -0.433710    -0.997467     2.138130
H     -0.918528    -1.038916     3.548105
O     -3.187448     0.590894    -0.105155
H     -3.397130     0.517404     0.858241
H     -3.018042     1.507967    -0.247243
O      2.646787    -1.460966    -0.998380
H      2.179136    -1.281805    -1.828390
H      1.885375    -1.346297    -0.386432
O      0.065671     2.343883     2.229430
H     -0.131811     1.750637     1.521156
H      1.015092     2.147601     2.388385
O      2.637791     0.698439     2.316515
H      3.403190     0.095791     2.263071
H      2.040586     0.587135     1.585898
$end

$rem
JOBTYPE          eda
EDA2             1
METHOD           wB97M-V
BASIS            def2-TZVPPD
SYMMETRY         false
MEM_TOTAL        50000
MEM_STATIC       10000
THRESH           14
SCF_CONVERGENCE  8
XC_GRID          000099000590
NL_GRID          1
EDA_CLS_DISP     true
FD_MAT_VEC_PROD  FALSE
$end
