$molecule
-1 1
--
-1 1
Br     0.000000     0.000000     0.000000
--
0 1
O      2.468166    -1.725257    -1.468911
H      2.008711    -1.796399    -2.336402
H      1.933235    -1.232159    -0.838800
O     -1.184606    -3.402731     0.278725
H     -0.353106    -3.499588     0.783401
H     -1.108456    -2.501841    -0.036643
O     -1.124259    -1.651488    -2.915811
H     -0.354710    -2.056374    -3.284914
H     -0.779463    -1.098095    -2.188563
O     -2.680953     1.703746    -1.441367
H     -2.245764     1.022923    -0.880588
H     -2.101163     1.772878    -2.243374
$end

$rem
JOBTYPE          eda
EDA2             1
METHOD           wB97M-V
BASIS            def2-TZVPPD
SYMMETRY         false
MEM_TOTAL        50000
MEM_STATIC       10000
THRESH           14
SCF_CONVERGENCE  8
XC_GRID          000099000590
NL_GRID          1
EDA_CLS_DISP     true
FD_MAT_VEC_PROD  FALSE
$end
