$molecule
-1 1
--
-1 1
Br     0.000000     0.000000     0.000000
--
0 1
O      1.500307     0.811394    -3.090514
H      1.680740     0.622734    -2.201421
H      1.748017     1.689370    -3.324807
O      0.724522    -0.831400     3.164447
H      0.313632    -0.838633     2.273180
H      1.443347    -0.198288     3.178378
O     -0.538708    -3.161155    -1.222705
H     -0.911093    -2.966491    -2.155417
H     -0.428745    -2.313873    -0.869458
O     -2.786344     0.234985    -1.999484
H     -2.318369     0.483461    -1.218225
H     -2.131614     0.066966    -2.657688
$end

$rem
JOBTYPE          eda
EDA2             1
METHOD           wB97M-V
BASIS            def2-TZVPPD
SYMMETRY         false
MEM_TOTAL        50000
MEM_STATIC       10000
THRESH           14
SCF_CONVERGENCE  8
XC_GRID          000099000590
NL_GRID          1
EDA_CLS_DISP     true
FD_MAT_VEC_PROD  FALSE
$end
